25
Coordinates from ORCA-job 4_Cu5C4H12S4
  Cu  -5.90963802030592      7.73876036155428      3.83179845842004
  Cu  -3.55996594257107      8.37981602750573      3.45299174630679
  S   -7.16424637220370      5.82414523747630      3.73927709490821
  C   -8.89161261786279      6.32542081851925      4.06929486144662
  H   -8.92384246015919      7.30570480011071      4.54347815068065
  H   -9.37969705911516      5.59364117000916      4.71282269416988
  H   -9.42939909769840      6.37435094735722      3.12120815418329
  Cu  -6.13782064210281      5.78678478579409      5.61130826563242
  S   -4.72392251804647      6.06599620060494      7.23380667330047
  H   -6.31479965333881      6.96976800371089      8.83085659899193
  H   -5.89056369243590      8.18611676007026      7.60636898108767
  C   -5.50205596269492      7.38719373453997      8.23649291781983
  H   -4.74925106032647      7.80173378890240      8.90756037377188
  Cu  -4.09611446338188      7.21635795852805      5.41724535394678
  Cu  -5.25382185621889      9.70291870131700      2.17621643258849
  S   -7.11809029589102      9.58318800588118      3.21043707063760
  C   -8.37268367263839      8.99693406586290      2.01616561514229
  H   -9.33040788887050      8.90538929005765      2.53081182099875
  H   -8.47903400770215      9.71177187723815      1.20035160288347
  H   -8.09499906703224      8.02364316968963      1.61312546197995
  S   -3.17936665385070      9.52311318705088      1.56477220904194
  C   -3.23062226573706      8.17825906634879      0.32172067301254
  H   -2.21516994595165      7.81410695044362      0.16316475492984
  H   -3.85311155892818      7.35053128283323      0.65883518379578
  H   -3.62060822493549      8.56139480859343     -0.62124414967727
