12
Coordinates from ORCA-job 1_Cu2C2H6S2
  Cu  -5.26886343420126      7.08916789438071      4.79473513128626
  S   -1.17483003028304      7.20986103525191      6.95207965628905
  C   -1.70687049041445      7.95029025563907      8.53319477606059
  H   -2.44744890682146      7.33196526071878      9.06439971165027
  H   -2.14607089778281      8.95239711691801      8.40716642161387
  H   -0.83763329326131      8.06024364554173      9.20280463083108
  S   -7.20998270029066      7.05701701561289      3.77555016999724
  C   -7.12775325745127      8.67320684035399      2.93151471720032
  H   -8.05010265088863      8.83536633171203      2.34926322296284
  H   -6.28451796904430      8.74230064710681      2.22643026473874
  H   -7.03743174179831      9.51614737703457      3.63457392884185
  Cu  -3.10823462776246      7.14916757972945      5.91962436852785
