13
Coordinates from ORCA-job 2_Cu3C2H6S2
  Cu  -6.63952991845711      7.01932112884261      4.64526486552835
  Cu  -5.20733761274425      8.02376257598155      6.25531331980730
  S   -8.54129032324775      6.08510842179684      5.42182935452749
  C   -9.69286033632436      7.49891428581118      5.22374123943453
  H   -10.48899960821821      7.42912528406308      5.97579936506529
  H   -10.14967801477983      7.45216785407501      4.22686032951432
  H   -9.19026719914272      8.46753769867851      5.33353311934035
  Cu  -7.27045252772080      6.86991503123323      7.05748853660067
  S   -5.77338544592994      7.76380960853505      8.42467347298875
  H   -3.80301762361601      6.56988395964690      9.18515341846761
  H   -4.66616744865284      5.60410964748590      7.96154583863922
  C   -4.79480211258117      6.26559037576116      8.82685690234568
  H   -5.29716582858476      5.70495912808875      9.62539223774018
