  13
 
N     2.1400690   -4.9658490    3.0984980
C     1.0523340   -4.8188390    2.2505120
N     0.6869090   -3.5156690    1.9627600
C     1.3381330   -2.4674300    2.4717930
C     2.4491730   -2.6456180    3.3460280
C     2.8143680   -3.9193800    3.6312050
O     0.4593220   -5.7800770    1.7907230
N     0.9261360   -1.2409530    2.1442720
H     1.3953700   -0.4288090    2.5132760
H     0.1357300   -1.1076270    1.5240670
H     2.9815110   -1.8051590    3.7669130
H     3.6438320   -4.1611890    4.2843260
H     2.4069890   -5.9212980    3.3071870
