12
 Energy =    -232.0725369155
 C    1.2031019   -0.6946112    0.0000000  0.00   -0.0151461    0.0087446   -0.0000000
 C    1.2031019    0.6946112    0.0000000  0.00   -0.0151461   -0.0087446   -0.0000000
 C    0.0000000    1.3892224    0.0000000  0.00   -0.0000000   -0.0174893   -0.0000000
 C   -1.2031019    0.6946112    0.0000000  0.00    0.0151461   -0.0087446   -0.0000000
 C   -1.2031019   -0.6946112    0.0000000  0.00    0.0151461    0.0087446   -0.0000000
 C    0.0000000   -1.3892224    0.0000000  0.00   -0.0000000    0.0174893   -0.0000000
 H    2.1366969   -1.2336225    0.0000000  0.00    0.3792592   -0.2189654   -0.0000000
 H    2.1366969    1.2336225    0.0000000  0.00    0.3792592    0.2189654   -0.0000000
 H    0.0000000    2.4672450    0.0000000  0.00   -0.0000000    0.4379308   -0.0000000
 H   -2.1366969    1.2336225    0.0000000  0.00   -0.3792592    0.2189654   -0.0000000
 H   -2.1366969   -1.2336225    0.0000000  0.00   -0.3792592   -0.2189654   -0.0000000
 H    0.0000000   -2.4672450    0.0000000  0.00   -0.0000000   -0.4379308   -0.0000000
12
 Energy =    -232.0764471515
 C    1.2154022   -0.7017128    0.0000000  0.00   -0.0097405    0.0056237   -0.0000000
 C    1.2154022    0.7017128    0.0000000  0.00   -0.0097405   -0.0056237   -0.0000000
 C    0.0000000    1.4034256    0.0000000  0.00   -0.0000000   -0.0112474   -0.0000000
 C   -1.2154022    0.7017128    0.0000000  0.00    0.0097405   -0.0056237   -0.0000000
 C   -1.2154022   -0.7017128    0.0000000  0.00    0.0097405    0.0056237   -0.0000000
 C    0.0000000   -1.4034256    0.0000000  0.00   -0.0000000    0.0112474   -0.0000000
 H    2.1667511   -1.2509743    0.0000000  0.00    0.0645641   -0.0372761   -0.0000000
 H    2.1667511    1.2509743    0.0000000  0.00    0.0645641    0.0372761   -0.0000000
 H    0.0000000    2.5019486    0.0000000  0.00   -0.0000000    0.0745522   -0.0000000
 H   -2.1667511    1.2509743    0.0000000  0.00   -0.0645641    0.0372761   -0.0000000
 H   -2.1667511   -1.2509743    0.0000000  0.00   -0.0645641   -0.0372761   -0.0000000
 H    0.0000000   -2.5019486    0.0000000  0.00   -0.0000000   -0.0745522   -0.0000000
12
 Energy =    -232.0765626639
 C    1.2176149   -0.7029903    0.0000000  0.00   -0.0035059    0.0020241   -0.0000000
 C    1.2176149    0.7029903    0.0000000  0.00   -0.0035059   -0.0020241   -0.0000000
 C    0.0000000    1.4059806    0.0000000  0.00   -0.0000000   -0.0040482   -0.0000000
 C   -1.2176149    0.7029903    0.0000000  0.00    0.0035059   -0.0020241   -0.0000000
 C   -1.2176149   -0.7029903    0.0000000  0.00    0.0035059    0.0020241   -0.0000000
 C    0.0000000   -1.4059806    0.0000000  0.00   -0.0000000    0.0040482   -0.0000000
 H    2.1725744   -1.2543364    0.0000000  0.00    0.0049826   -0.0028767   -0.0000000
 H    2.1725744    1.2543364    0.0000000  0.00    0.0049826    0.0028767   -0.0000000
 H    0.0000000    2.5086728    0.0000000  0.00   -0.0000000    0.0057534   -0.0000000
 H   -2.1725744    1.2543364    0.0000000  0.00   -0.0049826    0.0028767   -0.0000000
 H   -2.1725744   -1.2543364    0.0000000  0.00   -0.0049826   -0.0028767   -0.0000000
 H    0.0000000   -2.5086728    0.0000000  0.00   -0.0000000   -0.0057534   -0.0000000
12
 Energy =    -232.0765631216
 C    1.2176922   -0.7030349    0.0000000  0.00   -0.0007684    0.0004436   -0.0000000
 C    1.2176922    0.7030349    0.0000000  0.00   -0.0007684   -0.0004436   -0.0000000
 C    0.0000000    1.4060698    0.0000000  0.00   -0.0000000   -0.0008873   -0.0000000
 C   -1.2176922    0.7030349    0.0000000  0.00    0.0007684   -0.0004436   -0.0000000
 C   -1.2176922   -0.7030349    0.0000000  0.00    0.0007684    0.0004436   -0.0000000
 C    0.0000000   -1.4060698    0.0000000  0.00   -0.0000000    0.0008873   -0.0000000
 H    2.1729393   -1.2545471    0.0000000  0.00    0.0003331   -0.0001923   -0.0000000
 H    2.1729393    1.2545471    0.0000000  0.00    0.0003331    0.0001923   -0.0000000
 H    0.0000000    2.5090941    0.0000000  0.00   -0.0000000    0.0003847   -0.0000000
 H   -2.1729393    1.2545471    0.0000000  0.00   -0.0003331    0.0001923   -0.0000000
 H   -2.1729393   -1.2545471    0.0000000  0.00   -0.0003331   -0.0001923   -0.0000000
 H    0.0000000   -2.5090941    0.0000000  0.00   -0.0000000   -0.0003847   -0.0000000
