14
Coordinates from ORCA-job 1_l-cys
  S   -1.88815776339103     -0.53529441661508     -0.63001099385831
  O   1.88003462174174      0.25551215389694     -1.01432211166641
  O   1.56957449000282     -1.53343815170219      0.33197355746285
  N   0.10269873434167      1.85529163990122      0.32448168806533
  C   0.31627632616124      0.49833110238582      0.80723583705579
  C   -1.01243902455216     -0.25347493761412      0.95276890615864
  C   1.30736145548867     -0.38032853504061      0.02840308136251
  H   0.74582135538197      0.56254088680946      1.82347704644159
  H   -0.83295220658384     -1.25555059744701      1.36072115217913
  H   -1.67265215637944      0.29325315783019      1.63619124134153
  H   -0.19635793378575      1.82666747015464     -0.65434361159621
  H   0.98706320059939      2.36763821197145      0.33181957986041
  H   -2.32585640297662      0.73345056958922     -0.80964868418024
  H   2.50493530395135     -0.37546955411992     -1.43483368862662
