14
Coordinates from ORCA-job 2_l-cys E -721.564657727190
  S       2.289586      0.246317      0.255307
  O      -2.367800      0.607387      0.330809
  O      -0.567001      1.672014     -0.444683
  N      -1.233857     -1.812667     -0.183679
  C      -0.348981     -0.697078      0.243923
  C       0.986988     -0.781619     -0.505900
  C      -1.058654      0.638760     -0.020366
  H      -0.196619     -0.779016      1.326800
  H       1.362155     -1.811011     -0.494952
  H       0.876498     -0.478450     -1.552945
  H      -2.161240     -1.635924      0.213971
  H      -0.904333     -2.679760      0.238870
  H       1.719767      1.430799     -0.031397
  H      -2.690323      1.505365      0.105558
14
Coordinates from ORCA-job 2_l-cys E -721.566506739265
  S       2.312417      0.222967      0.258487
  O      -2.366134      0.602374      0.349425
  O      -0.565438      1.639188     -0.511687
  N      -1.234538     -1.801247     -0.194388
  C      -0.356454     -0.687905      0.244327
  C       0.976887     -0.769822     -0.500099
  C      -1.059128      0.640296     -0.014067
  H      -0.180617     -0.743996      1.334481
  H       1.337722     -1.806081     -0.485397
  H       0.860932     -0.469699     -1.549105
  H      -2.164928     -1.649194      0.202760
  H      -0.887013     -2.668353      0.222150
  H       1.754795      1.425315     -0.001200
  H      -2.722317      1.491275      0.125630
14
Coordinates from ORCA-job 2_l-cys E -721.566777279365
  S       2.308321      0.223838      0.281478
  O      -2.347127      0.632546      0.415743
  O      -0.555019      1.600597     -0.582443
  N      -1.223331     -1.813083     -0.232621
  C      -0.383789     -0.684799      0.219345
  C       0.968630     -0.765668     -0.478744
  C      -1.083758      0.624510     -0.077913
  H      -0.201790     -0.676567      1.320262
  H       1.326207     -1.803508     -0.413411
  H       0.870027     -0.506008     -1.541542
  H      -2.169356     -1.702748      0.137244
  H      -0.849387     -2.665408      0.198897
  H       1.772277      1.433762     -0.019402
  H      -2.725719      1.527653      0.254423
14
Coordinates from ORCA-job 2_l-cys E -721.567401879305
  S       2.313205      0.214606      0.277592
  O      -2.352251      0.631480      0.409483
  O      -0.573100      1.606507     -0.589909
  N      -1.226410     -1.802624     -0.223836
  C      -0.377101     -0.683646      0.228193
  C       0.972619     -0.767752     -0.483373
  C      -1.077292      0.638559     -0.046628
  H      -0.191693     -0.693272      1.323865
  H       1.329038     -1.806004     -0.429169
  H       0.871007     -0.498313     -1.542318
  H      -2.166448     -1.690356      0.163711
  H      -0.853970     -2.663648      0.186084
  H       1.779314      1.426551     -0.007720
  H      -2.740730      1.513029      0.215342
14
Coordinates from ORCA-job 2_l-cys E -721.567454848848
  S       2.307038      0.221588      0.278851
  O      -2.345062      0.636120      0.419568
  O      -0.575698      1.604641     -0.599056
  N      -1.228636     -1.799929     -0.226847
  C      -0.377247     -0.685646      0.228046
  C       0.975118     -0.770290     -0.481034
  C      -1.075745      0.639500     -0.046989
  H      -0.195485     -0.696949      1.323509
  H       1.335347     -1.806635     -0.419532
  H       0.876086     -0.507075     -1.541630
  H      -2.167130     -1.689412      0.165414
  H      -0.857057     -2.666096      0.172265
  H       1.771969      1.430560     -0.012773
  H      -2.737314      1.514742      0.221524
14
Coordinates from ORCA-job 2_l-cys E -721.567517404411
  S       2.294133      0.235500      0.288043
  O      -2.327052      0.650181      0.451723
  O      -0.586724      1.592810     -0.635177
  N      -1.232700     -1.793501     -0.238177
  C      -0.379610     -0.689021      0.227331
  C       0.979325     -0.774177     -0.471489
  C      -1.075152      0.640190     -0.051751
  H      -0.206302     -0.701375      1.323653
  H       1.346340     -1.806904     -0.391813
  H       0.887102     -0.526401     -1.536301
  H      -2.168082     -1.692751      0.164019
  H      -0.859207     -2.670489      0.134042
  H       1.764967      1.439420     -0.029520
  H      -2.730853      1.521635      0.246733
14
Coordinates from ORCA-job 2_l-cys E -721.567547506195
  S       2.286576      0.245074      0.294536
  O      -2.313651      0.662229      0.476493
  O      -0.596475      1.579952     -0.667131
  N      -1.235138     -1.789768     -0.246893
  C      -0.380827     -0.690791      0.227440
  C       0.981392     -0.776157     -0.464193
  C      -1.074859      0.639334     -0.056580
  H      -0.213985     -0.705399      1.324685
  H       1.352451     -1.806671     -0.373885
  H       0.892857     -0.537992     -1.531505
  H      -2.168157     -1.696714      0.162379
  H      -0.858631     -2.672794      0.107504
  H       1.757673      1.445228     -0.036786
  H      -2.723039      1.529586      0.265250
14
Coordinates from ORCA-job 2_l-cys E -721.567622109885
  S       2.265440      0.272240      0.316467
  O      -2.275610      0.697621      0.545031
  O      -0.629827      1.538498     -0.754012
  N      -1.241222     -1.779922     -0.273585
  C      -0.384878     -0.695301      0.230150
  C       0.985588     -0.780064     -0.440837
  C      -1.075367      0.635377     -0.067284
  H      -0.238227     -0.721235      1.329708
  H       1.367430     -1.804311     -0.324339
  H       0.907541     -0.565551     -1.514009
  H      -2.167826     -1.710507      0.154199
  H      -0.854234     -2.676159      0.033200
  H       1.744614      1.459962     -0.068685
  H      -2.697236      1.554469      0.315312
14
Coordinates from ORCA-job 2_l-cys E -721.567684823206
  S       2.244725      0.299877      0.335386
  O      -2.234050      0.736988      0.609694
  O      -0.668551      1.491220     -0.835991
  N      -1.246242     -1.771054     -0.301087
  C      -0.389129     -0.699458      0.234008
  C       0.988271     -0.783860     -0.417541
  C      -1.075884      0.630521     -0.075768
  H      -0.262926     -0.740397      1.334789
  H       1.380346     -1.801476     -0.277060
  H       0.920249     -0.590890     -1.495474
  H      -2.165850     -1.727542      0.144936
  H      -0.845876     -2.675403     -0.037944
  H       1.725542      1.472359     -0.097397
  H      -2.664439      1.584232      0.360766
14
Coordinates from ORCA-job 2_l-cys E -721.567716188846
  S       2.230410      0.319301      0.349625
  O      -2.206648      0.764892      0.651672
  O      -0.697820      1.457348     -0.884272
  N      -1.249133     -1.765870     -0.321924
  C      -0.393251     -0.702061      0.237347
  C       0.989249     -0.785768     -0.400533
  C      -1.077400      0.627013     -0.077800
  H      -0.282138     -0.757325      1.338052
  H       1.387877     -1.798692     -0.245317
  H       0.929276     -0.604736     -1.481023
  H      -2.163792     -1.741376      0.136121
  H      -0.837528     -2.672317     -0.083232
  H       1.717220      1.478256     -0.125988
  H      -2.640137      1.606454      0.388587
14
Coordinates from ORCA-job 2_l-cys E -721.567724768249
  S       2.229148      0.321811      0.350551
  O      -2.204090      0.769693      0.656789
  O      -0.700669      1.452598     -0.888945
  N      -1.248990     -1.767201     -0.325700
  C      -0.394294     -0.702325      0.236637
  C       0.989235     -0.786144     -0.399461
  C      -1.077999      0.626379     -0.077150
  H      -0.285272     -0.761053      1.336983
  H       1.388283     -1.798583     -0.243222
  H       0.931215     -0.604563     -1.479913
  H      -2.163101     -1.743977      0.134003
  H      -0.835146     -2.671793     -0.082923
  H       1.712431      1.478264     -0.127397
  H      -2.634566      1.612011      0.391063
14
Coordinates from ORCA-job 2_l-cys E -721.567727060729
  S       2.227213      0.323838      0.352387
  O      -2.202138      0.771801      0.660123
  O      -0.702780      1.450786     -0.890849
  N      -1.248789     -1.768129     -0.328486
  C      -0.395257     -0.702816      0.235803
  C       0.989379     -0.786200     -0.398448
  C      -1.078729      0.626078     -0.076706
  H      -0.287750     -0.763253      1.336101
  H       1.388826     -1.798142     -0.240592
  H       0.933444     -0.604530     -1.478928
  H      -2.163070     -1.745129      0.131305
  H      -0.834797     -2.671836     -0.082304
  H       1.712613      1.478325     -0.132175
  H      -2.631979      1.614322      0.394085
14
Coordinates from ORCA-job 2_l-cys E -721.567727728389
  S       2.225796      0.325375      0.352819
  O      -2.199612      0.773459      0.662488
  O      -0.704215      1.449213     -0.893414
  N      -1.248627     -1.768687     -0.330016
  C      -0.395541     -0.703338      0.235045
  C       0.989658     -0.786456     -0.398128
  C      -1.078782      0.625817     -0.077150
  H      -0.288782     -0.764200      1.335376
  H       1.389489     -1.797974     -0.238684
  H       0.934869     -0.605370     -1.478721
  H      -2.163184     -1.745331      0.129418
  H      -0.835355     -2.672247     -0.081848
  H       1.710366      1.479024     -0.132577
  H      -2.629894      1.615831      0.396708
