14
Coordinates from ORCA-job 3_l-cys
  S   -1.84326206625801     -0.50646388617089     -0.65230218601068
  O   1.92016798855139      0.07133991736519     -0.97247634720638
  O   1.46846328505122     -1.52112511233303      0.56655355377171
  N   0.19087912255954      1.83551739871671     -0.01974526020178
  C   0.31960517595107      0.59776515010955      0.74545222093992
  C   -1.05594289227996     -0.05441864161519      0.93665617352388
  C   1.27694084958014     -0.40537988164184      0.11247001248303
  H   0.72870071797898      0.75789968331203      1.76522788835181
  H   -0.95530388861845     -0.98317811275878      1.51050713997421
  H   -1.70785855910995      0.63270869336192      1.49258541527633
  H   1.11309652089336      2.21688252302915     -0.23788823559104
  H   -0.28580886387662      2.53169834004320      0.55873958915405
  H   -1.52540498498053      0.67417625663631     -1.24447049842659
  H   2.53113559455781     -0.63211332805434     -1.28466446603847
