14
Coordinates from ORCA-job 5_l-cys E -721.562374784084
  S      -1.969957     -0.302674     -0.620487
  O       2.088547      0.179227     -0.824742
  O       1.402416     -1.602442      0.327989
  N       0.253927      1.868967      0.066828
  C       0.322665      0.564565      0.779466
  C      -1.062860     -0.074491      0.953476
  C       1.284349     -0.410761      0.090092
  H       0.754145      0.761126      1.767942
  H      -0.980687     -1.054180      1.435926
  H      -1.683369      0.557425      1.598364
  H      -0.295657      1.722139     -0.784718
  H       1.197899      2.071945     -0.276779
  H      -3.078251     -0.828889     -0.078220
  H       2.635114     -0.559707     -1.166691
14
Coordinates from ORCA-job 5_l-cys E -721.565476931773
  S      -1.923453     -0.324097     -0.637186
  O       2.093770      0.123307     -0.845509
  O       1.342861     -1.625920      0.348225
  N       0.216346      1.889639      0.088779
  C       0.324353      0.569459      0.751754
  C      -1.044624     -0.067202      0.953449
  C       1.275988     -0.435883      0.080749
  H       0.753888      0.747068      1.751648
  H      -0.938930     -1.039348      1.448570
  H      -1.662237      0.579482      1.589466
  H      -0.332379      1.771870     -0.770203
  H       1.148965      2.159616     -0.232246
  H      -3.042315     -0.840460     -0.089859
  H       2.656048     -0.615280     -1.169190
14
Coordinates from ORCA-job 5_l-cys E -721.566475573292
  S      -1.902967     -0.354397     -0.644242
  O       2.076766      0.101301     -0.867060
  O       1.336822     -1.629464      0.385276
  N       0.203450      1.883899      0.098994
  C       0.321749      0.562707      0.724753
  C      -1.045080     -0.063606      0.958255
  C       1.259675     -0.456215      0.058469
  H       0.759425      0.717289      1.729694
  H      -0.926371     -1.024000      1.472064
  H      -1.654075      0.607292      1.576991
  H      -0.329910      1.793424     -0.772749
  H       1.133166      2.206145     -0.181445
  H      -3.040820     -0.838267     -0.094075
  H       2.676451     -0.613857     -1.176481
14
Coordinates from ORCA-job 5_l-cys E -721.566599377612
  S      -1.865979     -0.394712     -0.654746
  O       2.025566      0.082093     -0.905017
  O       1.336293     -1.624302      0.419099
  N       0.205514      1.880746      0.108560
  C       0.324788      0.567224      0.726736
  C      -1.045326     -0.062304      0.963186
  C       1.276377     -0.453496      0.084178
  H       0.753958      0.714088      1.738057
  H      -0.923037     -1.008928      1.499951
  H      -1.662829      0.626186      1.551759
  H      -0.289311      1.797512     -0.785095
  H       1.134368      2.245395     -0.116309
  H      -3.024516     -0.853667     -0.122723
  H       2.622414     -0.623586     -1.239191
14
Coordinates from ORCA-job 5_l-cys E -721.566915591202
  S      -1.880475     -0.394362     -0.651342
  O       2.019652      0.081177     -0.913520
  O       1.375415     -1.615062      0.439586
  N       0.204989      1.877474      0.104941
  C       0.322977      0.563579      0.725631
  C      -1.049839     -0.067521      0.962142
  C       1.273465     -0.455783      0.075543
  H       0.755962      0.707773      1.734814
  H      -0.930342     -1.015078      1.497740
  H      -1.664585      0.621896      1.551761
  H      -0.277173      1.793410     -0.794943
  H       1.133745      2.248252     -0.106062
  H      -3.044437     -0.835440     -0.119622
  H       2.628925     -0.618065     -1.238222
14
Coordinates from ORCA-job 5_l-cys E -721.567043609283
  S      -1.874291     -0.403929     -0.654205
  O       1.986863      0.070571     -0.938861
  O       1.415256     -1.599323      0.474106
  N       0.205553      1.876136      0.106888
  C       0.322699      0.564885      0.731354
  C      -1.050888     -0.071496      0.960839
  C       1.275719     -0.453309      0.080494
  H       0.753539      0.707375      1.740497
  H      -0.933720     -1.016838      1.500912
  H      -1.670172      0.620483      1.542366
  H      -0.247147      1.788828     -0.807235
  H       1.134149      2.263186     -0.071565
  H      -3.047458     -0.828316     -0.132182
  H       2.598179     -0.626003     -1.264962
14
Coordinates from ORCA-job 5_l-cys E -721.567215991109
  S      -1.847179     -0.422093     -0.666370
  O       1.904686      0.036899     -0.996547
  O       1.490407     -1.560749      0.545060
  N       0.208416      1.879464      0.117751
  C       0.323972      0.572124      0.745796
  C      -1.049794     -0.074947      0.956554
  C       1.280931     -0.445507      0.095423
  H       0.746311      0.711852      1.756904
  H      -0.936804     -1.015248      1.506511
  H      -1.682181      0.620383      1.519763
  H      -0.182309      1.788434     -0.823222
  H       1.133155      2.298733      0.006424
  H      -3.032431     -0.836006     -0.167146
  H       2.511100     -0.661088     -1.328455
14
Coordinates from ORCA-job 5_l-cys E -721.567327346730
  S      -1.812837     -0.432517     -0.684424
  O       1.810795     -0.006992     -1.052477
  O       1.564759     -1.513895      0.611560
  N       0.214265      1.888773      0.133940
  C       0.327097      0.581898      0.761193
  C      -1.046644     -0.074342      0.949541
  C       1.286197     -0.435216      0.111345
  H       0.737769      0.719164      1.775867
  H      -0.938232     -1.011260      1.506654
  H      -1.693102      0.620780      1.497391
  H      -0.120762      1.798366     -0.827776
  H       1.132701      2.332688      0.080895
  H      -3.000531     -0.863308     -0.206449
  H       2.406808     -0.711888     -1.388816
14
Coordinates from ORCA-job 5_l-cys E -721.567378435688
  S      -1.798762     -0.430104     -0.695111
  O       1.771150     -0.024942     -1.072420
  O       1.588652     -1.495440      0.634058
  N       0.220025      1.896344      0.143723
  C       0.329166      0.586217      0.767456
  C      -1.045558     -0.070427      0.944581
  C       1.287233     -0.430482      0.118184
  H       0.732448      0.722508      1.784943
  H      -0.939907     -1.007386      1.502564
  H      -1.696896      0.622429      1.490091
  H      -0.102984      1.808499     -0.822604
  H       1.139644      2.339804      0.101885
  H      -2.977583     -0.890122     -0.220260
  H       2.361654     -0.734646     -1.408643
14
Coordinates from ORCA-job 5_l-cys E -721.567411329902
  S      -1.795080     -0.421421     -0.702839
  O       1.755532     -0.030447     -1.079027
  O       1.591816     -1.490134      0.641655
  N       0.226578      1.902821      0.151812
  C       0.330727      0.587625      0.769632
  C      -1.046510     -0.064089      0.940518
  C       1.285974     -0.429198      0.121589
  H       0.727862      0.722394      1.790090
  H      -0.943473     -1.002560      1.496772
  H      -1.697791      0.626500      1.489304
  H      -0.106186      1.819084     -0.812133
  H       1.152293      2.332947      0.097865
  H      -2.957857     -0.918842     -0.223003
  H       2.344394     -0.742429     -1.413788
14
Coordinates from ORCA-job 5_l-cys E -721.567416837935
  S      -1.796761     -0.417497     -0.704120
  O       1.754915     -0.030661     -1.079001
  O       1.592287     -1.489534      0.642698
  N       0.228765      1.903992      0.154000
  C       0.331064      0.587458      0.769705
  C      -1.047606     -0.061814      0.939790
  C       1.285283     -0.429660      0.121716
  H       0.726936      0.720369      1.791033
  H      -0.945814     -1.001085      1.494910
  H      -1.697477      0.628950      1.489892
  H      -0.111032      1.822153     -0.807766
  H       1.156633      2.328482      0.092089
  H      -2.953716     -0.927034     -0.222877
  H       2.344805     -0.741869     -1.413624
14
Coordinates from ORCA-job 5_l-cys E -721.567420427639
  S      -1.798185     -0.413309     -0.705254
  O       1.753255     -0.031362     -1.079064
  O       1.595216     -1.487865      0.644691
  N       0.231255      1.904862      0.156332
  C       0.331488      0.587436      0.770603
  C      -1.048666     -0.059718      0.939230
  C       1.285052     -0.429747      0.122256
  H       0.726052      0.717674      1.792816
  H      -0.948678     -1.000009      1.492874
  H      -1.697174      0.631620      1.490106
  H      -0.116862      1.824788     -0.802711
  H       1.161168      2.323483      0.084965
  H      -2.949875     -0.934237     -0.224236
  H       2.344235     -0.741364     -1.414161
14
Coordinates from ORCA-job 5_l-cys E -721.567421333313
  S      -1.797526     -0.412843     -0.705710
  O       1.751734     -0.032063     -1.079322
  O       1.597818     -1.486610      0.646214
  N       0.231932      1.904841      0.157194
  C       0.331750      0.587480      0.771383
  C      -1.048645     -0.059524      0.939097
  C       1.285581     -0.429464      0.122868
  H       0.725808      0.716612      1.793904
  H      -0.949360     -1.000037      1.492426
  H      -1.697102      0.632226      1.489541
  H      -0.119618      1.825166     -0.800648
  H       1.162260      2.321936      0.082230
  H      -2.949435     -0.934013     -0.225796
  H       2.343085     -0.741456     -1.414934
