14
Coordinates from ORCA-job 5_l-cys
  S   -1.79752558895477     -0.41284347267985     -0.70571017344249
  O   1.75173375766488     -0.03206281652370     -1.07932218667685
  O   1.59781798201149     -1.48660976440857      0.64621448451649
  N   0.23193174407949      1.90484052448574      0.15719369661813
  C   0.33174960644455      0.58747965141848      0.77138269358695
  C   -1.04864525199185     -0.05952405479803      0.93909678903945
  C   1.28558083230602     -0.42946377680264      0.12286799643898
  H   0.72580770882123      0.71661186894253      1.79390409160022
  H   -0.94935967198262     -1.00003712452853      1.49242622809779
  H   -1.69710239195969      0.63222551870236      1.48954113545718
  H   -0.11961784139436      1.82516622191901     -0.80064789302007
  H   1.16226003863874      2.32193590165279      0.08222969584283
  H   -2.94943457591585     -0.93401294633462     -0.22579649084054
  H   2.34308465223274     -0.74145573104496     -1.41493406721808
