14
Coordinates from ORCA-job 6_l-cys E -721.562532283824
  S       2.586871     -0.033834     -0.119753
  O      -2.577581      0.536894     -0.028082
  O      -1.799132     -1.550478      0.039873
  N      -0.179872      1.681039      0.171655
  C      -0.198112      0.288527     -0.349099
  C       0.895835     -0.594461      0.272448
  C      -1.564457     -0.359336     -0.083802
  H      -0.080192      0.328115     -1.438525
  H       0.790463     -0.629287      1.363038
  H       0.806696     -1.624814     -0.089230
  H      -0.237390      1.661272      1.188987
  H      -1.046484      2.131002     -0.136432
  H       3.226985     -0.977228      0.585584
  H      -3.376802     -0.014685      0.109423
14
Coordinates from ORCA-job 6_l-cys E -721.565828771824
  S       2.543516      0.018245     -0.119564
  O      -2.604021      0.497622     -0.064140
  O      -1.764483     -1.582662      0.059625
  N      -0.125133      1.678227      0.183303
  C      -0.211076      0.290718     -0.314113
  C       0.869587     -0.588300      0.300403
  C      -1.573248     -0.383873     -0.076927
  H      -0.077460      0.320503     -1.408679
  H       0.764672     -0.615055      1.394367
  H       0.772750     -1.614302     -0.072474
  H      -0.198231      1.668533      1.205094
  H      -0.948196      2.186227     -0.146688
  H       3.209036     -0.982150      0.492933
  H      -3.410886     -0.051005      0.052947
14
Coordinates from ORCA-job 6_l-cys E -721.566978629280
  S       2.518859      0.074298     -0.086874
  O      -2.603803      0.485971     -0.091234
  O      -1.749468     -1.600943      0.059514
  N      -0.111405      1.666890      0.195083
  C      -0.217408      0.284369     -0.276836
  C       0.863998     -0.587038      0.344235
  C      -1.578249     -0.399470     -0.070907
  H      -0.068918      0.301707     -1.373644
  H       0.753066     -0.608414      1.438791
  H       0.776397     -1.609491     -0.037858
  H      -0.219801      1.674727      1.215165
  H      -0.894164      2.211136     -0.176128
  H       3.206086     -1.010499      0.342784
  H      -3.428363     -0.040516      0.003994
14
Coordinates from ORCA-job 6_l-cys E -721.567401217167
  S       2.510987      0.111982     -0.032587
  O      -2.601549      0.480792     -0.105618
  O      -1.748539     -1.608663      0.057244
  N      -0.109673      1.661328      0.205109
  C      -0.217689      0.277902     -0.251799
  C       0.866022     -0.587886      0.381738
  C      -1.581608     -0.407004     -0.067311
  H      -0.056972      0.282495     -1.347746
  H       0.740410     -0.612490      1.474385
  H       0.796556     -1.607512     -0.009426
  H      -0.257229      1.689928      1.219501
  H      -0.855672      2.225212     -0.208038
  H       3.198993     -1.033181      0.197312
  H      -3.437210     -0.030178     -0.026680
14
Coordinates from ORCA-job 6_l-cys E -721.567553096698
  S       2.507901      0.135439      0.015240
  O      -2.598874      0.482855     -0.100173
  O      -1.756897     -1.610961      0.050535
  N      -0.107744      1.653048      0.210628
  C      -0.216930      0.269748     -0.241514
  C       0.867816     -0.592677      0.400131
  C      -1.585133     -0.409232     -0.064621
  H      -0.050399      0.266306     -1.335842
  H       0.725914     -0.627437      1.490029
  H       0.819258     -1.609263     -0.000846
  H      -0.294794      1.698305      1.217097
  H      -0.818324      2.232079     -0.240889
  H       3.196036     -1.027662      0.114911
  H      -3.441002     -0.017822     -0.028601
14
Coordinates from ORCA-job 6_l-cys E -721.567613942805
  S       2.508224      0.141965      0.038422
  O      -2.597349      0.485694     -0.082852
  O      -1.761440     -1.610688      0.041273
  N      -0.107972      1.648701      0.212365
  C      -0.216189      0.266653     -0.243145
  C       0.867998     -0.596137      0.400855
  C      -1.585922     -0.408325     -0.065495
  H      -0.048763      0.262377     -1.336475
  H       0.716184     -0.640219      1.488892
  H       0.832443     -1.610976     -0.005950
  H      -0.325412      1.701689      1.211740
  H      -0.793339      2.236789     -0.265109
  H       3.198509     -1.021399      0.101333
  H      -3.440144     -0.013398     -0.009769
14
Coordinates from ORCA-job 6_l-cys E -721.567637168281
  S       2.508569      0.142405      0.047797
  O      -2.597376      0.486140     -0.064307
  O      -1.762234     -1.611038      0.027399
  N      -0.107433      1.647477      0.213836
  C      -0.216031      0.266781     -0.245172
  C       0.867276     -0.597758      0.397915
  C      -1.585190     -0.406903     -0.061498
  H      -0.050612      0.263909     -1.338263
  H       0.711064     -0.648761      1.485107
  H       0.838906     -1.611692     -0.012058
  H      -0.350665      1.706166      1.206524
  H      -0.771228      2.242483     -0.284785
  H       3.199984     -1.019943      0.106333
  H      -3.438201     -0.016541      0.007256
14
Coordinates from ORCA-job 6_l-cys E -721.567642984058
  S       2.508314      0.141149      0.055161
  O      -2.596002      0.485930     -0.041891
  O      -1.759027     -1.611738      0.014273
  N      -0.107660      1.647639      0.212249
  C      -0.215111      0.268521     -0.251401
  C       0.864750     -0.598785      0.393118
  C      -1.583571     -0.406712     -0.070340
  H      -0.047198      0.269658     -1.343872
  H       0.703089     -0.655455      1.479401
  H       0.840586     -1.611584     -0.020182
  H      -0.371516      1.708206      1.199375
  H      -0.755541      2.247323     -0.301415
  H       3.199581     -1.020715      0.124130
  H      -3.433867     -0.020711      0.037477
14
Coordinates from ORCA-job 6_l-cys E -721.567653596944
  S       2.508008      0.140534      0.049684
  O      -2.596731      0.485076     -0.044264
  O      -1.758614     -1.612649      0.010997
  N      -0.106734      1.648696      0.211591
  C      -0.215508      0.268843     -0.249433
  C       0.864953     -0.598162      0.394445
  C      -1.583711     -0.407363     -0.067967
  H      -0.048146      0.269386     -1.342232
  H       0.706137     -0.652161      1.481288
  H       0.837323     -1.611356     -0.017519
  H      -0.363979      1.708933      1.200643
  H      -0.760007      2.246520     -0.297479
  H       3.198627     -1.021735      0.124598
  H      -3.434792     -0.021837      0.031733
14
Coordinates from ORCA-job 6_l-cys E -721.567658837491
  S       2.507783      0.139817      0.048396
  O      -2.596585      0.484288     -0.035313
  O      -1.757820     -1.613978     -0.002128
  N      -0.106039      1.649727      0.209601
  C      -0.215517      0.269436     -0.249654
  C       0.864391     -0.597944      0.394849
  C      -1.583423     -0.408021     -0.069072
  H      -0.047517      0.270012     -1.342457
  H       0.705945     -0.650932      1.481811
  H       0.835020     -1.611180     -0.016833
  H      -0.364141      1.711190      1.198431
  H      -0.758809      2.247071     -0.300699
  H       3.197600     -1.022745      0.130480
  H      -3.434061     -0.024015      0.038672
14
Coordinates from ORCA-job 6_l-cys E -721.567673211876
  S       2.507389      0.137655      0.049618
  O      -2.594476      0.481523      0.003574
  O      -1.756497     -1.617199     -0.054343
  N      -0.104522      1.652614      0.201563
  C      -0.215084      0.271063     -0.252518
  C       0.862130     -0.597323      0.396139
  C      -1.582324     -0.409833     -0.076128
  H      -0.043693      0.270773     -1.344950
  H       0.702083     -0.647572      1.483025
  H       0.829257     -1.610734     -0.014765
  H      -0.369440      1.719225      1.188371
  H      -0.752465      2.248978     -0.316011
  H       3.194623     -1.025524      0.151215
  H      -3.430153     -0.030919      0.071295
14
Coordinates from ORCA-job 6_l-cys E -721.567700003674
  S       2.506540      0.131342      0.058071
  O      -2.584140      0.467675      0.111696
  O      -1.758288     -1.614999     -0.197454
  N      -0.101149      1.659907      0.178833
  C      -0.213577      0.275363     -0.262308
  C       0.855335     -0.595069      0.400046
  C      -1.579697     -0.412739     -0.097786
  H      -0.031901      0.270363     -1.353282
  H       0.688404     -0.637144      1.486302
  H       0.814986     -1.609457     -0.007692
  H      -0.382854      1.740015      1.160139
  H      -0.736831      2.253445     -0.356929
  H       3.186162     -1.032717      0.204080
  H      -3.416161     -0.053260      0.162370
14
Coordinates from ORCA-job 6_l-cys E -721.567734181429
  S       2.506512      0.127772      0.065920
  O      -2.575744      0.458007      0.164082
  O      -1.761841     -1.608004     -0.266232
  N      -0.100842      1.663174      0.166603
  C      -0.212309      0.277381     -0.269281
  C       0.851558     -0.593065      0.402486
  C      -1.578358     -0.412488     -0.110832
  H      -0.024287      0.267871     -1.359025
  H       0.679249     -0.629710      1.488107
  H       0.808822     -1.608661     -0.002232
  H      -0.386029      1.748110      1.146522
  H      -0.734811      2.254193     -0.374039
  H       3.181903     -1.036922      0.226571
  H      -3.406997     -0.064933      0.207433
14
Coordinates from ORCA-job 6_l-cys E -721.567856790678
  S       2.508719      0.117478      0.087337
  O      -2.552690      0.432699      0.264509
  O      -1.772442     -1.583414     -0.398050
  N      -0.103794      1.670797      0.140423
  C      -0.208276      0.282163     -0.285604
  C       0.844107     -0.586624      0.409497
  C      -1.575356     -0.407514     -0.141930
  H      -0.005942      0.258647     -1.371910
  H       0.659102     -0.607919      1.493318
  H       0.795291     -1.606106      0.014007
  H      -0.383634      1.762560      1.121309
  H      -0.747296      2.251959     -0.399971
  H       3.172923     -1.050784      0.261307
  H      -3.383883     -0.091215      0.291840
14
Coordinates from ORCA-job 6_l-cys E -721.567946767720
  S       2.507559      0.109546      0.111618
  O      -2.523969      0.397453      0.363512
  O      -1.791105     -1.546545     -0.527251
  N      -0.104236      1.676500      0.115014
  C      -0.205377      0.286392     -0.302860
  C       0.834465     -0.580522      0.415359
  C      -1.574241     -0.400218     -0.170479
  H       0.010653      0.247702     -1.385284
  H       0.634758     -0.588362      1.496699
  H       0.784182     -1.603615      0.028913
  H      -0.384269      1.776192      1.094755
  H      -0.748642      2.252999     -0.429565
  H       3.163771     -1.060486      0.296499
  H      -3.356721     -0.124310      0.379154
14
Coordinates from ORCA-job 6_l-cys E -721.568037729976
  S       2.503858      0.102651      0.140438
  O      -2.487776      0.355784      0.453275
  O      -1.815412     -1.499948     -0.647776
  N      -0.105162      1.681642      0.088433
  C      -0.202305      0.290437     -0.324099
  C       0.822146     -0.572989      0.421170
  C      -1.573585     -0.390153     -0.200373
  H       0.029409      0.234293     -1.401369
  H       0.603963     -0.566577      1.498967
  H       0.775187     -1.600952      0.046595
  H      -0.379000      1.785177      1.069205
  H      -0.753998      2.254940     -0.454499
  H       3.152693     -1.069927      0.327875
  H      -3.323190     -0.161653      0.468244
14
Coordinates from ORCA-job 6_l-cys E -721.568128347776
  S       2.496952      0.096634      0.164159
  O      -2.448220      0.301611      0.542879
  O      -1.845887     -1.441290     -0.765239
  N      -0.100718      1.688361      0.061634
  C      -0.200975      0.296097     -0.344274
  C       0.807185     -0.566325      0.425040
  C      -1.574336     -0.380491     -0.224576
  H       0.045074      0.226813     -1.416773
  H       0.571795     -0.548658      1.499250
  H       0.763414     -1.598256      0.060856
  H      -0.377282      1.797860      1.040757
  H      -0.742841      2.263440     -0.487431
  H       3.136864     -1.077965      0.369507
  H      -3.284198     -0.215105      0.560295
14
Coordinates from ORCA-job 6_l-cys E -721.567143558862
  S       2.465091      0.139819      0.201277
  O      -2.426365      0.336570      0.518250
  O      -1.873213     -1.471231     -0.734695
  N      -0.095676      1.664673      0.060907
  C      -0.207205      0.283129     -0.392667
  C       0.782761     -0.572854      0.398604
  C      -1.578356     -0.396925     -0.232507
  H       0.063274      0.244740     -1.458925
  H       0.497222     -0.593065      1.461878
  H       0.826881     -1.606830      0.044457
  H      -0.397104      1.726352      1.036044
  H      -0.685651      2.290970     -0.489331
  H       3.128333     -1.027599      0.409561
  H      -3.253164     -0.175023      0.663232
14
Coordinates from ORCA-job 6_l-cys E -721.568161526330
  S       2.489746      0.109451      0.181246
  O      -2.441926      0.307614      0.543097
  O      -1.854176     -1.444808     -0.760792
  N      -0.097957      1.683588      0.059602
  C      -0.202442      0.293272     -0.354538
  C       0.801304     -0.569154      0.419975
  C      -1.576045     -0.382953     -0.226176
  H       0.049090      0.230311     -1.425643
  H       0.551444     -0.564065      1.491274
  H       0.778824     -1.600499      0.052352
  H      -0.384317      1.785977      1.036615
  H      -0.725062      2.269604     -0.494760
  H       3.134355     -1.065614      0.376033
  H      -3.276012     -0.209999      0.587800
14
Coordinates from ORCA-job 6_l-cys E -721.568190740350
  S       2.486542      0.097536      0.194893
  O      -2.397283      0.248036      0.622074
  O      -1.887438     -1.378395     -0.865263
  N      -0.095943      1.693648      0.030811
  C      -0.200132      0.300052     -0.372622
  C       0.788259     -0.560261      0.425068
  C      -1.575981     -0.371135     -0.249650
  H       0.063821      0.223004     -1.439065
  H       0.527680     -0.536815      1.493467
  H       0.758108     -1.596327      0.070787
  H      -0.367379      1.799965      1.011871
  H      -0.737162      2.271525     -0.516350
  H       3.116166     -1.079902      0.420631
  H      -3.232429     -0.268206      0.659433
14
Coordinates from ORCA-job 6_l-cys E -721.568199300172
  S       2.485477      0.099317      0.202513
  O      -2.387148      0.238104      0.636905
  O      -1.897774     -1.364699     -0.882912
  N      -0.095974      1.693536      0.026755
  C      -0.199628      0.299037     -0.374580
  C       0.786742     -0.560327      0.426814
  C      -1.576358     -0.369720     -0.252729
  H       0.066173      0.220179     -1.440315
  H       0.522402     -0.536685      1.494176
  H       0.758956     -1.596484      0.072436
  H      -0.370422      1.802319      1.006685
  H      -0.735039      2.270679     -0.523736
  H       3.114755     -1.079182      0.423101
  H      -3.225336     -0.273350      0.670973
14
Coordinates from ORCA-job 6_l-cys E -721.568214250745
  S       2.479967      0.102840      0.231183
  O      -2.339261      0.186068      0.703273
  O      -1.946621     -1.295034     -0.961908
  N      -0.094519      1.695030      0.006367
  C      -0.197499      0.297125     -0.386750
  C       0.777758     -0.558894      0.431943
  C      -1.579016     -0.360246     -0.268629
  H       0.077353      0.210959     -1.449025
  H       0.497509     -0.532423      1.494894
  H       0.758569     -1.596400      0.080180
  H      -0.381549      1.812325      0.981586
  H      -0.724354      2.269760     -0.557297
  H       3.105168     -1.078303      0.448728
  H      -3.186677     -0.310082      0.731540
14
Coordinates from ORCA-job 6_l-cys E -721.568216432270
  S       2.482362      0.103559      0.224639
  O      -2.349315      0.200194      0.689754
  O      -1.939679     -1.309431     -0.945164
  N      -0.096196      1.693159      0.012630
  C      -0.197197      0.295371     -0.382171
  C       0.781994     -0.560657      0.431087
  C      -1.578560     -0.362950     -0.264751
  H       0.074951      0.213066     -1.445693
  H       0.506231     -0.536774      1.495257
  H       0.762045     -1.597311      0.077028
  H      -0.386895      1.808899      0.987014
  H      -0.725519      2.267288     -0.552256
  H       3.109863     -1.076411      0.442279
  H      -3.197258     -0.295277      0.716434
14
Coordinates from ORCA-job 6_l-cys E -721.568217339937
  S       2.481675      0.102626      0.226290
  O      -2.344538      0.193043      0.696917
  O      -1.943992     -1.300747     -0.954719
  N      -0.095732      1.694027      0.010341
  C      -0.196812      0.295887     -0.383425
  C       0.780604     -0.559799      0.432102
  C      -1.578772     -0.361351     -0.266783
  H       0.076624      0.212384     -1.446435
  H       0.503808     -0.534382      1.495984
  H       0.760412     -1.597025      0.079561
  H      -0.388417      1.810476      0.984073
  H      -0.723680      2.268003     -0.556261
  H       3.108010     -1.077875      0.444669
  H      -3.192361     -0.302541      0.723770
