14
Coordinates from ORCA-job 6_l-cys
  S   2.48167489404869      0.10262640489949      0.22628985628298
  O   -2.34453834325540      0.19304278146541      0.69691665392751
  O   -1.94399248975102     -1.30074673164168     -0.95471881662976
  N   -0.09573248403720      1.69402675842066      0.01034126139362
  C   -0.19681170591096      0.29588663433609     -0.38342468162658
  C   0.78060390213111     -0.55979880763679      0.43210247742394
  C   -1.57877208244297     -0.36135124855211     -0.26678271045012
  H   0.07662395217034      0.21238393488575     -1.44643544528469
  H   0.50380836855911     -0.53438153985362      1.49598360860595
  H   0.76041188765980     -1.59702521018986      0.07956117450027
  H   -0.38841672272793      1.81047615870455      0.98407279843498
  H   -0.72367976822491      2.26800280688765     -0.55626065567624
  H   3.10800953523970     -1.07787514798386      0.44466936975409
  H   -3.19236094345835     -0.30254079374168      0.72377010934405
