14
Coordinates from ORCA-job 7_l-cys
  S   -1.90672339813278     -0.11668112996797     -0.65807543178369
  O   1.97486204743839     -0.15205978546336     -0.89593657702096
  O   1.20185024519801     -1.59819264861966      0.65967979167969
  N   0.38006079102496      1.83965627090284     -0.19099798766767
  C   0.37068204881867      0.67543844221375      0.69288883994223
  C   -1.06462624472246      0.21944910799170      0.94494743183814
  C   1.20035231042116     -0.48718424300827      0.15585345529018
  H   0.81403060162621      0.87765949111488      1.69213000893931
  H   -1.06883849690757     -0.69637213060152      1.54441228634754
  H   -1.60695106461203      1.00720443088553      1.48413585923002
  H   1.34029252693864      2.13925681128265     -0.37173891750140
  H   -0.08030443039585      2.61719668385631      0.28908672772278
  H   -2.66017376212173     -1.14426059811366     -0.20191898201014
  H   2.50256382542637     -0.94485070247323     -1.13800950500602
