14
Coordinates from ORCA-job 7_l-cys E -721.561981342398
  S      -2.031527     -0.339208     -0.584628
  O       2.280987      0.011871     -0.649617
  O       1.197405     -1.657608      0.355252
  N       0.351140      1.831144     -0.238561
  C       0.340727      0.637855      0.641286
  C      -1.075519      0.103966      0.908700
  C       1.258840     -0.464790      0.100990
  H       0.784833      0.935656      1.599662
  H      -1.032259     -0.785720      1.546342
  H      -1.654979      0.860129      1.450163
  H       1.317505      2.000775     -0.527163
  H       0.039914      2.648410      0.280182
  H      -3.134661     -0.748557      0.057352
  H       2.754671     -0.797663     -0.933503
14
Coordinates from ORCA-job 7_l-cys E -721.565145122322
  S      -1.975250     -0.283730     -0.607989
  O       2.239228     -0.004305     -0.674201
  O       1.120033     -1.655966      0.367762
  N       0.339426      1.815842     -0.243814
  C       0.344457      0.644125      0.653414
  C      -1.060829      0.127027      0.926152
  C       1.244079     -0.466817      0.124338
  H       0.787051      0.920521      1.630402
  H      -1.012386     -0.771746      1.552973
  H      -1.632121      0.890991      1.469962
  H       1.300354      2.008909     -0.530379
  H       0.012308      2.632618      0.275216
  H      -3.045533     -0.815922      0.015900
  H       2.736262     -0.805287     -0.953278
14
Coordinates from ORCA-job 7_l-cys E -721.566315088062
  S      -1.967354     -0.187580     -0.616987
  O       2.226918     -0.021817     -0.678399
  O       1.093319     -1.654328      0.409369
  N       0.309359      1.798177     -0.258870
  C       0.342297      0.637557      0.638604
  C      -1.056914      0.146363      0.945859
  C       1.209974     -0.484282      0.091203
  H       0.804075      0.873399      1.627452
  H      -0.998953     -0.773181      1.540874
  H      -1.595941      0.913466      1.519679
  H       1.258864      2.022535     -0.559421
  H      -0.024749      2.606336      0.275417
  H      -2.989280     -0.843384     -0.013182
  H       2.785462     -0.796999     -0.915140
14
Coordinates from ORCA-job 7_l-cys E -721.567157338271
  S      -1.977332     -0.130899     -0.615486
  O       2.194400     -0.044867     -0.705813
  O       1.081238     -1.654975      0.433715
  N       0.324217      1.802382     -0.254653
  C       0.345851      0.647557      0.647935
  C      -1.065573      0.169975      0.955423
  C       1.212836     -0.486921      0.115263
  H       0.804997      0.876922      1.638147
  H      -1.017193     -0.757902      1.536109
  H      -1.593261      0.936635      1.538589
  H       1.278017      2.040289     -0.533770
  H      -0.033164      2.609393      0.264218
  H      -2.901494     -0.950971     -0.056478
  H       2.743536     -0.820358     -0.956742
14
Coordinates from ORCA-job 7_l-cys E -721.567523627488
  S      -1.991373     -0.072225     -0.608025
  O       2.153561     -0.070281     -0.736189
  O       1.086142     -1.653152      0.476588
  N       0.333074      1.806700     -0.247825
  C       0.349056      0.655636      0.656682
  C      -1.070621      0.191737      0.964757
  C       1.202084     -0.492425      0.125046
  H       0.814883      0.881208      1.643205
  H      -1.034811     -0.746695      1.527720
  H      -1.584239      0.956185      1.561900
  H       1.288553      2.057143     -0.510092
  H      -0.047356      2.612288      0.255827
  H      -2.799742     -1.041659     -0.115561
  H       2.697866     -0.848199     -0.987577
14
Coordinates from ORCA-job 7_l-cys E -721.567671822032
  S      -1.982373     -0.066692     -0.611400
  O       2.115202     -0.091017     -0.769971
  O       1.102861     -1.647783      0.515669
  N       0.344144      1.814138     -0.234765
  C       0.354704      0.661944      0.666702
  C      -1.070868      0.203588      0.965147
  C       1.197030     -0.494271      0.132772
  H       0.822796      0.886752      1.650720
  H      -1.048499     -0.734088      1.529068
  H      -1.585613      0.971396      1.556377
  H       1.301110      2.078177     -0.477590
  H      -0.060625      2.614612      0.256962
  H      -2.743649     -1.086282     -0.150410
  H       2.650856     -0.874214     -1.022823
14
Coordinates from ORCA-job 7_l-cys E -721.567790805687
  S      -1.955226     -0.076869     -0.623854
  O       2.057913     -0.118537     -0.819938
  O       1.126310     -1.635075      0.569590
  N       0.359533      1.824667     -0.215475
  C       0.362045      0.669031      0.679354
  C      -1.069057      0.217792      0.962496
  C       1.189821     -0.495180      0.140544
  H       0.829331      0.886890      1.664751
  H      -1.063880     -0.713572      1.536858
  H      -1.590426      0.994951      1.535683
  H       1.317408      2.108281     -0.430472
  H      -0.076307      2.615184      0.265528
  H      -2.676689     -1.134192     -0.186225
  H       2.586301     -0.907109     -1.072382
14
Coordinates from ORCA-job 7_l-cys E -721.567854940708
  S      -1.929263     -0.099419     -0.638713
  O       2.015507     -0.136516     -0.858613
  O       1.153458     -1.621176      0.609558
  N       0.372530      1.833487     -0.200402
  C       0.367594      0.672748      0.687455
  C      -1.066769      0.223775      0.955358
  C       1.189794     -0.493492      0.145776
  H       0.828692      0.883041      1.677215
  H      -1.073188     -0.698471      1.544359
  H      -1.597467      1.009789      1.508020
  H       1.331071      2.130042     -0.393330
  H      -0.083594      2.615198      0.276323
  H      -2.651985     -1.154570     -0.197692
  H       2.540697     -0.928175     -1.108856
14
Coordinates from ORCA-job 7_l-cys E -721.567887125288
  S      -1.911426     -0.113522     -0.650524
  O       1.988278     -0.147785     -0.883827
  O       1.177448     -1.608948      0.638363
  N       0.378971      1.838088     -0.192429
  C       0.370614      0.674206      0.691600
  C      -1.064687      0.224653      0.949516
  C       1.193479     -0.491189      0.150145
  H       0.823810      0.878066      1.686468
  H      -1.075345     -0.691435      1.548257
  H      -1.602126      1.015478      1.489145
  H       1.337785      2.141661     -0.372849
  H      -0.086810      2.614230      0.284480
  H      -2.647065     -1.156933     -0.201420
  H       2.514150     -0.940308     -1.130467
14
Coordinates from ORCA-job 7_l-cys E -721.567897663399
  S      -1.904966     -0.120405     -0.657074
  O       1.977011     -0.152012     -0.895090
  O       1.195363     -1.601200      0.654022
  N       0.381199      1.839900     -0.189954
  C       0.371601      0.674665      0.692845
  C      -1.063873      0.221898      0.945431
  C       1.198612     -0.488776      0.153508
  H       0.818271      0.876231      1.690924
  H      -1.073282     -0.691833      1.547972
  H      -1.605476      1.013008      1.480593
  H       1.340679      2.144169     -0.366327
  H      -0.085519      2.614639      0.288489
  H      -2.656491     -1.149201     -0.200214
  H       2.503947     -0.944826     -1.138667
14
Coordinates from ORCA-job 7_l-cys E -721.567900624675
  S      -1.906074     -0.118341     -0.657783
  O       1.976480     -0.151719     -0.895355
  O       1.199290     -1.599483      0.657111
  N       0.380347      1.839480     -0.190900
  C       0.371036      0.674855      0.692645
  C      -1.064195      0.220222      0.945064
  C       1.200021     -0.487856      0.154795
  H       0.815618      0.876619      1.691537
  H      -1.070549     -0.694558      1.546085
  H      -1.606207      1.009530      1.482396
  H       1.340251      2.141303     -0.369495
  H      -0.082877      2.615632      0.288710
  H      -2.660164     -1.145016     -0.200385
  H       2.504100     -0.944407     -1.137966
14
Coordinates from ORCA-job 7_l-cys E -721.567901729677
  S      -1.906723     -0.116681     -0.658075
  O       1.974862     -0.152060     -0.895937
  O       1.201850     -1.598193      0.659680
  N       0.380061      1.839656     -0.190998
  C       0.370682      0.675438      0.692889
  C      -1.064626      0.219449      0.944947
  C       1.200352     -0.487184      0.155853
  H       0.814031      0.877659      1.692130
  H      -1.068838     -0.696372      1.544412
  H      -1.606951      1.007204      1.484136
  H       1.340293      2.139257     -0.371739
  H      -0.080304      2.617197      0.289087
  H      -2.660174     -1.144261     -0.201919
  H       2.502564     -0.944851     -1.138010
