27
Energy =
Ag    4.1425033   -1.9574708   -1.9728951 
N     4.1883745    2.0441993   -0.9211457 
C     3.9076527    0.7773148   -1.3952790 
N     4.8471337   -0.1974445   -1.1357663 
C     5.9704042    0.0702561   -0.4660487 
C     6.2423604    1.3844283    0.0135114 
C     5.3182137    2.3416009   -0.2389272 
O     2.8722981    0.5476238   -2.0123157 
N     6.8454376   -0.9121877   -0.2637201 
H     6.6192223   -1.8550367   -0.5468740 
H     7.6638686   -0.7557800    0.3020172 
H     7.1479702    1.6136004    0.5546460 
H     5.4344853    3.3679619    0.0844511 
H     3.4912318    2.7531271   -1.1165678 
N     2.9961709   -5.7029012   -3.5096116 
C     3.6752820   -4.6699673   -2.8804425 
N     3.0699749   -3.4324919   -2.9320184 
C     1.9009316   -3.2316706   -3.5462943 
C     1.2221164   -4.3109913   -4.1847432 
C     1.8120262   -5.5299939   -4.1386717 
O     4.7422341   -4.8536083   -2.3176465 
N     1.3831366   -2.0049326   -3.5613114 
H     1.8385429   -1.2382358   -3.0759109 
H     0.4815340   -1.8479836   -3.9816276 
H     0.2775285   -4.1682864   -4.6874922 
H     1.3724256   -6.4078205   -4.5947390 
H     3.4425721   -6.6114005   -3.4707356 
