25
Coordinates from ORCA-job 4_Cu5C4H12S4
  Cu  -5.77087768529570      7.74269112618974      3.87202462559389
  Cu  -3.30926652918161      7.95628864529267      3.34837354390935
  S   -6.08648887065242      5.58470570797779      3.36796747932082
  C   -7.91954976523666      5.52123456707402      3.31370070603752
  H   -8.38195607284483      6.18835575591632      4.05052454699036
  H   -8.25189533458816      4.49295909081672      3.50706535034763
  H   -8.25488093169454      5.81777976850356      2.31128096769177
  Cu  -5.63587104323349      5.87559141320285      5.49482395182423
  S   -4.96026121277514      6.69675869707526      7.42226015494891
  H   -7.17952962872854      7.40921872829190      8.12024480874450
  H   -6.61007211253950      8.39828857366722      6.74115512855877
  C   -6.31169731226664      7.91629718837598      7.67926485588970
  H   -5.96459054351184      8.68789664329653      8.37841554041881
  Cu  -3.96278937261984      7.65082128447746      5.63319036929785
  Cu  -4.88799017149442      9.63887343881729      2.54430585618149
  S   -6.41988953354038      9.87321442611714      4.09648244160712
  C   -7.99863601497246      9.83941543562743      3.16186858547074
  H   -8.80159075521195      9.51040793219791      3.83436321042308
  H   -8.22973723219857     10.85162935454905      2.80520459004512
  H   -7.95993781334107      9.16022233825726      2.30222977503301
  S   -3.24494342905502      8.88378183453272      1.28887291738359
  C   -4.18363878770488      7.59898899373100      0.36807861539425
  H   -3.47667165675405      6.85744738462491     -0.02558892746880
  H   -4.91129956714635      7.08773182766027      1.00879601743371
  H   -4.70678362341166      8.06644084372654     -0.47603811107762
