  13
 
N    -0.1470357   -2.0289284    2.5021331
C    -0.2631955   -1.5042962    1.1848942
O    -0.1597404   -2.2761250    0.2310994
N    -0.4884175   -0.1436196    1.0827476
C    -0.5834657    0.5936718    2.1832516
N    -0.8060135    1.9292721    2.0088873
C    -0.4674143    0.0753473    3.5260249
C    -0.2444859   -1.2730420    3.6307670
H    -0.8855639    2.2811828    1.0636442
H    -0.8910366    2.5604291    2.7910840
H    -0.5500593    0.7062253    4.4109633
H    -0.1377644   -1.7903072    4.5865317
H     0.0176965   -3.0297787    2.5520199
