11
Coordinates from ORCA-job 0_CuC2H6S2 E -2514.762440649070
  Cu     -5.511764      7.532655      4.959335
  S      -3.342271      7.612146      5.886088
  C      -3.913754      7.595213      7.620844
  H      -4.487713      6.691600      7.848740
  H      -4.560974      8.449698      7.841850
  H      -3.065932      7.633273      8.315981
  S      -7.852407      7.459536      3.847775
  C      -7.495339      8.595457      2.462696
  H      -8.376539      8.726352      1.822526
  H      -6.681806      8.222100      1.832890
  H      -7.195530      9.585953      2.818943
11
Coordinates from ORCA-job 0_CuC2H6S2 E -2514.770220594132
  Cu     -5.536865      7.514844      4.931695
  S      -3.400507      7.596909      5.856190
  C      -3.938043      7.603003      7.603264
  H      -4.504065      6.704467      7.856622
  H      -4.569424      8.464281      7.830304
  H      -3.069866      7.644928      8.267748
  S      -7.799623      7.439792      3.860768
  C      -7.466025      8.595955      2.488415
  H      -8.358518      8.715168      1.867117
  H      -6.659905      8.238690      1.843835
  H      -7.181188      9.585943      2.851711
11
Coordinates from ORCA-job 0_CuC2H6S2 E -2514.781999576517
  Cu     -5.576062      7.509253      4.898520
  S      -3.502315      7.597200      5.809705
  C      -3.972679      7.609822      7.577020
  H      -4.521199      6.709804      7.857677
  H      -4.590625      8.473452      7.826224
  H      -3.070096      7.655779      8.192666
  S      -7.715136      7.431369      3.900513
  C      -7.422274      8.593390      2.523802
  H      -8.334895      8.689175      1.929259
  H      -6.627821      8.246590      1.861054
  H      -7.150927      9.588148      2.881228
11
Coordinates from ORCA-job 0_CuC2H6S2 E -2514.788503207136
  Cu     -5.595971      7.504742      4.880662
  S      -3.569617      7.595388      5.780388
  C      -3.994534      7.614182      7.559086
  H      -4.534000      6.714198      7.856846
  H      -4.604799      8.479604      7.820767
  H      -3.072568      7.662441      8.145076
  S      -7.654425      7.426380      3.928599
  C      -7.395821      8.591751      2.546344
  H      -8.321276      8.672433      1.969463
  H      -6.608779      8.252851      1.871094
  H      -7.132241      9.590010      2.899343
11
Coordinates from ORCA-job 0_CuC2H6S2 E -2514.792759388484
  Cu     -5.616553      7.480794      4.852704
  S      -3.664080      7.572164      5.738790
  C      -4.028195      7.624452      7.529942
  H      -4.563469      6.733403      7.860331
  H      -4.621808      8.500008      7.796434
  H      -3.083147      7.674524      8.077219
  S      -7.552322      7.405108      3.960490
  C      -7.358551      8.591854      2.582780
  H      -8.302745      8.651963      2.034593
  H      -6.582413      8.277416      1.883930
  H      -7.110746      9.592295      2.940455
11
Coordinates from ORCA-job 0_CuC2H6S2 E -2514.793246537657
  Cu     -5.588685      7.366818      4.816807
  S      -3.655226      7.445839      5.736087
  C      -4.044891      7.652777      7.510587
  H      -4.627812      6.815762      7.896901
  H      -4.600495      8.572734      7.697931
  H      -3.108007      7.700732      8.071695
  S      -7.506111      7.302184      3.888865
  C      -7.352245      8.606669      2.615447
  H      -8.298384      8.684015      2.072984
  H      -6.567693      8.376031      1.893704
  H      -7.134479      9.580421      3.056660
11
Coordinates from ORCA-job 0_CuC2H6S2 E -2514.793726244432
  Cu     -5.533582      7.194745      4.764804
  S      -3.648416      7.241407      5.760135
  C      -4.069261      7.696082      7.480352
  H      -4.738369      6.966118      7.937824
  H      -4.546438      8.675850      7.534245
  H      -3.150907      7.731740      8.072549
  S      -7.411153      7.159520      3.753469
  C      -7.347730      8.628719      2.664606
  H      -8.301941      8.725191      2.139824
  H      -6.557789      8.540001      1.917358
  H      -7.178444      9.544608      3.232503
11
Coordinates from ORCA-job 0_CuC2H6S2 E -2514.793931816339
  Cu     -5.494616      7.040101      4.715617
  S      -3.660519      7.045864      5.796722
  C      -4.099989      7.740226      7.429293
  H      -4.852782      7.134432      7.935464
  H      -4.483137      8.758493      7.345421
  H      -3.205731      7.764382      8.057456
  S      -7.322201      7.041522      3.615572
  C      -7.331301      8.643078      2.734111
  H      -8.279061      8.749753      2.200405
  H      -6.522199      8.702875      2.004647
  H      -7.232493      9.483255      3.422960
11
Coordinates from ORCA-job 0_CuC2H6S2 E -2514.793944134363
  Cu     -5.488089      6.980118      4.694931
  S      -3.672107      6.968104      5.811619
  C      -4.116363      7.760277      7.397336
  H      -4.900363      7.209225      7.918607
  H      -4.458334      8.786533      7.254455
  H      -3.232720      7.783487      8.040489
  S      -7.293653      6.995981      3.560146
  C      -7.317561      8.645585      2.774189
  H      -8.252207      8.758608      2.218748
  H      -6.489705      8.769491      2.074347
  H      -7.262927      9.446572      3.512802
11
Coordinates from ORCA-job 0_CuC2H6S2 E -2514.793913452644
  Cu     -5.492309      6.974989      4.692558
  S      -3.674252      6.962099      5.808863
  C      -4.119233      7.762953      7.390045
  H      -4.904315      7.215804      7.913844
  H      -4.459156      8.789081      7.241610
  H      -3.235557      7.788078      8.033255
  S      -7.297783      6.990203      3.558938
  C      -7.313298      8.644687      2.782565
  H      -8.240250      8.758744      2.214231
  H      -6.475874      8.775630      2.095449
  H      -7.272002      9.441715      3.526311
11
Coordinates from ORCA-job 0_CuC2H6S2 E -2514.793880959851
  Cu     -5.493860      6.974085      4.692650
  S      -3.675502      6.959871      5.808008
  C      -4.118984      7.763333      7.388372
  H      -4.904904      7.218162      7.912970
  H      -4.457318      8.789824      7.238721
  H      -3.235098      7.787988      8.031406
  S      -7.299744      6.989441      3.559816
  C      -7.312967      8.644576      2.784250
  H      -8.235318      8.756862      2.207971
  H      -6.469991      8.778627      2.104609
  H      -7.280343      9.441211      3.528895
11
Coordinates from ORCA-job 0_CuC2H6S2 E -2514.794041040124
  Cu     -5.496734      6.971875      4.693502
  S      -3.678738      6.952682      5.807571
  C      -4.117144      7.763959      7.385488
  H      -4.906474      7.225436      7.911828
  H      -4.449468      8.791951      7.232414
  H      -3.233160      7.785810      8.028553
  S      -7.303303      6.988477      3.560778
  C      -7.313678      8.644778      2.786896
  H      -8.223778      8.750818      2.190197
  H      -6.456785      8.787851      2.126913
  H      -7.304768      9.440343      3.533527
11
Coordinates from ORCA-job 0_CuC2H6S2 E -2514.793923474796
  Cu     -5.497055      6.976215      4.695242
  S      -3.677985      6.957164      5.806938
  C      -4.115437      7.762455      7.388114
  H      -4.903401      7.221015      7.913511
  H      -4.449409      8.790484      7.238957
  H      -3.230797      7.783285      8.030246
  S      -7.305088      6.991889      3.564442
  C      -7.315244      8.644799      2.783608
  H      -8.225541      8.748769      2.186936
  H      -6.458588      8.784546      2.122632
  H      -7.305484      9.443359      3.527041
11
Coordinates from ORCA-job 0_CuC2H6S2 E -2514.793948941418
  Cu     -5.496230      6.976478      4.695429
  S      -3.678053      6.956063      5.808181
  C      -4.114890      7.762318      7.388942
  H      -4.903986      7.222203      7.913999
  H      -4.447067      8.790877      7.239496
  H      -3.230594      7.781661      8.031527
  S      -7.303472      6.992311      3.563333
  C      -7.316088      8.645073      2.782701
  H      -8.226858      8.747823      2.186641
  H      -6.460030      8.785673      2.121146
  H      -7.306761      9.443499      3.526274
