12
Coordinates from ORCA-job 1_Cu2C2H6S2 E -4154.292277029392
  Cu     -5.511764      7.532655      4.959335
  S      -0.715908      7.772348      7.181896
  C      -1.287391      7.755415      8.916652
  H      -1.861350      6.851802      9.144548
  H      -1.934611      8.609900      9.137658
  H      -0.439569      7.793475      9.611789
  S      -7.852407      7.459536      3.847775
  C      -7.495339      8.595457      2.462696
  H      -8.376539      8.726352      1.822526
  H      -6.681806      8.222100      1.832890
  H      -7.195530      9.585953      2.818943
  Cu     -3.047526      7.662138      6.054629
12
Coordinates from ORCA-job 1_Cu2C2H6S2 E -4154.295496239318
  Cu     -5.503576      7.526997      4.966876
  S      -0.755907      7.771134      7.146949
  C      -1.325317      7.760911      8.881035
  H      -1.898531      6.858117      9.112676
  H      -1.971303      8.616676      9.099303
  H      -0.475572      7.801370      9.573504
  S      -7.810853      7.453061      3.880506
  C      -7.458013      8.592685      2.499229
  H      -8.341450      8.722821      1.862199
  H      -6.645576      8.221896      1.867017
  H      -7.159927      9.582395      2.858194
  Cu     -3.053715      7.659068      6.043848
12
Coordinates from ORCA-job 1_Cu2C2H6S2 E -4154.303271944627
  Cu     -5.480269      7.519403      4.992882
  S      -0.861871      7.777393      7.055214
  C      -1.420049      7.772218      8.791945
  H      -1.988510      6.868418      9.029983
  H      -2.066130      8.627495      9.010475
  H      -0.563830      7.817665      9.476223
  S      -7.703690      7.442814      3.971390
  C      -7.363961      8.583801      2.589172
  H      -8.254485      8.710872      1.961268
  H      -6.556482      8.214195      1.950449
  H      -7.065676      9.573410      2.947431
  Cu     -3.074787      7.659446      6.014907
12
Coordinates from ORCA-job 1_Cu2C2H6S2 E -4154.307623203445
  Cu     -5.461773      7.514788      5.012524
  S      -0.935103      7.782419      6.994611
  C      -1.479739      7.778997      8.736324
  H      -2.044196      6.874249      8.979788
  H      -2.126038      8.633211      8.957747
  H      -0.617527      7.827672      9.412914
  S      -7.630897      7.437243      4.031523
  C      -7.304346      8.578257      2.645208
  H      -8.200488      8.702045      2.024588
  H      -6.500793      8.209511      2.001217
  H      -7.005577      9.568558      3.000833
  Cu     -3.093264      7.660180      5.994060
12
Coordinates from ORCA-job 1_Cu2C2H6S2 E -4154.311890403696
  Cu     -5.431273      7.506590      5.042537
  S      -1.048711      7.788342      6.906770
  C      -1.563460      7.788695      8.659216
  H      -2.121364      6.883090      8.913909
  H      -2.208655      8.641718      8.887711
  H      -0.689213      7.841994      9.319935
  S      -7.519863      7.429215      4.116901
  C      -7.220071      8.571164      2.723082
  H      -8.126105      8.688110      2.115545
  H      -6.423018      8.205523      2.069488
  H      -6.921628      9.563150      3.073961
  Cu     -3.126379      7.659540      5.962281
12
Coordinates from ORCA-job 1_Cu2C2H6S2 E -4154.312570146898
  Cu     -5.404468      7.491976      5.060284
  S      -1.133282      7.784919      6.849003
  C      -1.617192      7.797617      8.611749
  H      -2.175694      6.896365      8.880164
  H      -2.254361      8.655232      8.845381
  H      -0.730918      7.850041      9.256334
  S      -7.436160      7.416581      4.166124
  C      -7.166183      8.569051      2.772706
  H      -8.081997      8.681516      2.179133
  H      -6.375102      8.212565      2.106918
  H      -6.869866      9.561072      3.125252
  Cu     -3.154517      7.650197      5.938289
12
Coordinates from ORCA-job 1_Cu2C2H6S2 E -4154.312766576660
  Cu     -5.405906      7.485350      5.051924
  S      -1.115244      7.777305      6.867103
  C      -1.599291      7.798047      8.629728
  H      -2.164047      6.901356      8.900542
  H      -2.230644      8.660654      8.861099
  H      -0.712968      7.846109      9.274506
  S      -7.452356      7.411230      4.142435
  C      -7.184547      8.572649      2.756076
  H      -8.100435      8.687294      2.163121
  H      -6.392838      8.221685      2.087995
  H      -6.889872      9.563069      3.114611
  Cu     -3.151590      7.642384      5.942197
12
Coordinates from ORCA-job 1_Cu2C2H6S2 E -4154.312877605946
  Cu     -5.398480      7.466726      5.042821
  S      -1.114572      7.760825      6.876142
  C      -1.590688      7.803082      8.640521
  H      -2.167448      6.916961      8.920851
  H      -2.208497      8.676771      8.867267
  H      -0.701175      7.843460      9.281210
  S      -7.448913      7.395285      4.119359
  C      -7.194242      8.578162      2.748765
  H      -8.113252      8.696007      2.161522
  H      -6.403296      8.241443      2.072372
  H      -6.903536      9.564939      3.120485
  Cu     -3.155640      7.623470      5.940021
12
Coordinates from ORCA-job 1_Cu2C2H6S2 E -4154.312968119038
  Cu     -5.381675      7.427970      5.026409
  S      -1.123514      7.727158      6.884232
  C      -1.585029      7.815032      8.650298
  H      -2.185845      6.951511      8.950156
  H      -2.174991      8.710787      8.865520
  H      -0.690113      7.840321      9.283875
  S      -7.431402      7.361235      4.081572
  C      -7.202052      8.588036      2.746175
  H      -8.126931      8.712549      2.169978
  H      -6.412437      8.281513      2.053841
  H      -6.919839      9.566346      3.145923
  Cu     -3.165913      7.584671      5.933359
12
Coordinates from ORCA-job 1_Cu2C2H6S2 E -4154.312994543195
  Cu     -5.376080      7.411887      5.019348
  S      -1.127015      7.712412      6.883279
  C      -1.588502      7.820861      8.647837
  H      -2.199009      6.966720      8.954914
  H      -2.168410      8.725032      8.855260
  H      -0.693667      7.841669      9.281713
  S      -7.423262      7.345967      4.070186
  C      -7.199747      8.591352      2.751651
  H      -8.125593      8.719956      2.177890
  H      -6.409571      8.297508      2.054447
  H      -6.921208      9.565337      3.164334
  Cu     -3.167677      7.568430      5.930477
12
Coordinates from ORCA-job 1_Cu2C2H6S2 E -4154.312999803376
  Cu     -5.368259      7.384851      5.006385
  S      -1.129947      7.686369      6.881313
  C      -1.595828      7.831051      8.641598
  H      -2.222862      6.993141      8.959869
  H      -2.159577      8.748854      8.833363
  H      -0.703062      7.845435      9.278672
  S      -7.411482      7.319571      4.051193
  C      -7.194643      8.596703      2.762997
  H      -8.120943      8.733219      2.191661
  H      -6.402468      8.324673      2.059191
  H      -6.922593      9.562519      3.198566
  Cu     -3.168076      7.540744      5.926530
12
Coordinates from ORCA-job 1_Cu2C2H6S2 E -4154.313015139507
  Cu     -5.360802      7.353863      4.990433
  S      -1.130842      7.655178      6.880504
  C      -1.603544      7.842818      8.634622
  H      -2.249334      7.024105      8.965078
  H      -2.149201      8.775432      8.806510
  H      -0.714346      7.851004      9.276929
  S      -7.400197      7.289341      4.027515
  C      -7.189480      8.602933      2.775869
  H      -8.115433      8.748994      2.206166
  H      -6.394075      8.356537      2.066244
  H      -6.925348      9.558342      3.238429
  Cu     -3.167141      7.508585      5.923038
12
Coordinates from ORCA-job 1_Cu2C2H6S2 E -4154.313030025159
  Cu     -5.351429      7.313754      4.968203
  S      -1.130300      7.612282      6.882522
  C      -1.611971      7.858045      8.627035
  H      -2.281945      7.065575      8.972904
  H      -2.133888      8.808902      8.770731
  H      -0.728314      7.859463      9.277134
  S      -7.386360      7.250970      3.993465
  C      -7.184661      8.611413      2.791313
  H      -8.109976      8.769425      2.223631
  H      -6.384543      8.399425      2.075871
  H      -6.931695      9.551913      3.289297
  Cu     -3.164661      7.465966      5.919231
12
Coordinates from ORCA-job 1_Cu2C2H6S2 E -4154.313030864611
  Cu     -5.350138      7.306505      4.963793
  S      -1.129156      7.603305      6.884223
  C      -1.612293      7.860608      8.626954
  H      -2.285864      7.072621      8.976030
  H      -2.130879      8.814200      8.764375
  H      -0.729675      7.862278      9.278420
  S      -7.384501      7.244726      3.986465
  C      -7.185170      8.613431      2.792830
  H      -8.110202      8.772652      2.225055
  H      -6.383594      8.407850      2.077165
  H      -6.935068      9.551321      3.297114
  Cu     -3.163202      7.457633      5.918913
12
Coordinates from ORCA-job 1_Cu2C2H6S2 E -4154.313042263315
  Cu     -5.346982      7.291898      4.955192
  S      -1.128294      7.584703      6.887911
  C      -1.612867      7.865685      8.627056
  H      -2.292941      7.086592      8.983355
  H      -2.125001      8.824471      8.751752
  H      -0.731688      7.868571      9.280360
  S      -7.379421      7.232877      3.972366
  C      -7.186271      8.617700      2.795608
  H      -8.111043      8.778320      2.227926
  H      -6.381834      8.425285      2.079531
  H      -6.942568      9.550529      3.312198
  Cu     -3.160831      7.440502      5.918082
12
Coordinates from ORCA-job 1_Cu2C2H6S2 E -4154.312976534420
  Cu     -5.346451      7.289531      4.953775
  S      -1.128713      7.580325      6.889265
  C      -1.612234      7.866324      8.627985
  H      -2.291973      7.088106      8.986803
  H      -2.124487      8.825385      8.749874
  H      -0.730618      7.871253      9.280624
  S      -7.378019      7.231880      3.969826
  C      -7.187232      8.618886      2.795124
  H      -8.111999      8.778100      2.227125
  H      -6.381798      8.429017      2.079507
  H      -6.945918      9.551405      3.313379
  Cu     -3.160299      7.436919      5.918050
12
Coordinates from ORCA-job 1_Cu2C2H6S2 E -4154.313056868769
  Cu     -5.339668      7.264527      4.939293
  S      -1.131367      7.544964      6.895996
  C      -1.614125      7.875083      8.627252
  H      -2.302450      7.112075      9.001944
  H      -2.116474      8.841965      8.726123
  H      -0.733261      7.885380      9.280693
  S      -7.365419      7.213259      3.945825
  C      -7.188132      8.626691      2.800699
  H      -8.112430      8.784643      2.231792
  H      -6.376728      8.461799      2.085694
  H      -6.961885      9.551225      3.339601
  Cu     -3.157803      7.405520      5.916427
12
Coordinates from ORCA-job 1_Cu2C2H6S2 E -4154.313059722095
  Cu     -5.338681      7.261872      4.937775
  S      -1.131792      7.541479      6.896001
  C      -1.615302      7.876203      8.625972
  H      -2.305049      7.115181      9.002122
  H      -2.116081      8.844136      8.722699
  H      -0.734852      7.886543      9.280029
  S      -7.363968      7.210658      3.943597
  C      -7.187183      8.627148      2.802506
  H      -8.111338      8.785846      2.233505
  H      -6.375378      8.465108      2.087290
  H      -6.962147      9.550602      3.343795
  Cu     -3.157968      7.402357      5.916045
12
Coordinates from ORCA-job 1_Cu2C2H6S2 E -4154.313065723272
  Cu     -5.333306      7.243626      4.927101
  S      -1.133585      7.516155      6.899440
  C      -1.619344      7.883178      8.621816
  H      -2.316788      7.134593      9.008649
  H      -2.111606      8.857017      8.702030
  H      -0.740724      7.896356      9.278391
  S      -7.355126      7.195222      3.926376
  C      -7.184904      8.631735      2.810209
  H      -8.107968      8.792488      2.239895
  H      -6.369075      8.488749      2.095471
  H      -6.969950      9.548160      3.367380
  Cu     -3.157364      7.379850      5.914580
12
Coordinates from ORCA-job 1_Cu2C2H6S2 E -4154.313080693076
  Cu     -5.323978      7.213829      4.908918
  S      -1.136132      7.472605      6.907425
  C      -1.625161      7.894535      8.615929
  H      -2.334963      7.167104      9.020339
  H      -2.103793      8.877148      8.666885
  H      -0.749684      7.913769      9.276619
  S      -7.339913      7.170971      3.896682
  C      -7.182446      8.639783      2.821976
  H      -8.103635      8.802899      2.249196
  H      -6.359689      8.528655      2.109504
  H      -6.985165      9.543880      3.405295
  Cu     -3.155180      7.341953      5.912570
12
Coordinates from ORCA-job 1_Cu2C2H6S2 E -4154.313092399756
  Cu     -5.319444      7.200239      4.900410
  S      -1.136654      7.450998      6.912281
  C      -1.627639      7.899687      8.613373
  H      -2.342159      7.181781      9.026423
  H      -2.101401      8.885335      8.649127
  H      -0.753749      7.923924      9.275995
  S      -7.332928      7.160489      3.882725
  C      -7.181789      8.643831      2.827220
  H      -8.101720      8.807493      2.252568
  H      -6.355295      8.547667      2.116905
  H      -6.993560      9.542035      3.422542
  Cu     -3.153402      7.323651      5.911769
12
Coordinates from ORCA-job 1_Cu2C2H6S2 E -4154.313094105615
  Cu     -5.308880      7.169261      4.880641
  S      -1.139893      7.402754      6.923803
  C      -1.633727      7.911707      8.606854
  H      -2.360959      7.217671      9.038167
  H      -2.093154      8.904779      8.609024
  H      -0.763332      7.944154      9.273735
  S      -7.315553      7.136261      3.849371
  C      -7.179563      8.652557      2.839891
  H      -8.096853      8.818218      2.261565
  H      -6.345315      8.591200      2.134801
  H      -7.011782      9.535841      3.463061
  Cu     -3.150730      7.282728      5.910425
12
Coordinates from ORCA-job 1_Cu2C2H6S2 E -4154.313096511888
  Cu     -5.305571      7.162685      4.876451
  S      -1.139400      7.390235      6.927347
  C      -1.635588      7.914259      8.605180
  H      -2.364035      7.224513      9.041315
  H      -2.094464      8.907534      8.597547
  H      -0.766309      7.952054      9.273204
  S      -7.311435      7.131950      3.842969
  C      -7.179233      8.654923      2.842921
  H      -8.095885      8.820606      2.263607
  H      -6.343173      8.600898      2.139396
  H      -7.016159      9.535015      3.471839
  Cu     -3.148488      7.272459      5.909561
12
Coordinates from ORCA-job 1_Cu2C2H6S2 E -4154.313102099504
  Cu     -5.303340      7.174365      4.884908
  S      -1.130169      7.395319      6.927419
  C      -1.637043      7.909515      8.605877
  H      -2.350309      7.204061      9.041971
  H      -2.118325      8.891931      8.595564
  H      -0.768828      7.967176      9.273661
  S      -7.316323      7.145949      3.862153
  C      -7.180607      8.654812      2.840120
  H      -8.097962      8.816831      2.261033
  H      -6.346240      8.586326      2.135920
  H      -7.011449      9.542279      3.456902
  Cu     -3.139146      7.278566      5.905810
12
Coordinates from ORCA-job 1_Cu2C2H6S2 E -4154.312886138754
  Cu     -5.303303      7.171066      4.882528
  S      -1.132559      7.392442      6.927262
  C      -1.637871      7.911018      8.604545
  H      -2.354405      7.209440      9.041509
  H      -2.114371      8.895798      8.593582
  H      -0.769562      7.965371      9.272582
  S      -7.314384      7.142062      3.857650
  C      -7.179324      8.654961      2.842104
  H      -8.096388      8.818085      2.262836
  H      -6.344428      8.590693      2.138104
  H      -7.011998      9.540344      3.462390
  Cu     -3.141146      7.275852      5.906244
12
Coordinates from ORCA-job 1_Cu2C2H6S2 E -4154.313100227834
  Cu     -5.295658      7.146058      4.866118
  S      -1.138976      7.356071      6.935259
  C      -1.644535      7.921391      8.596649
  H      -2.374058      7.241730      9.046540
  H      -2.104697      8.913421      8.561732
  H      -0.778619      7.977198      9.267849
  S      -7.299029      7.120671      3.829073
  C      -7.174679      8.660675      2.854944
  H      -8.089432      8.827521      2.273004
  H      -6.334248      8.625768      2.155421
  H      -7.023386      9.531979      3.498892
  Cu     -3.142423      7.244649      5.905857
12
Coordinates from ORCA-job 1_Cu2C2H6S2 E -4154.312754874116
  Cu     -5.299067      7.160477      4.875762
  S      -1.134111      7.375202      6.931094
  C      -1.641604      7.915433      8.600678
  H      -2.361992      7.221953      9.044179
  H      -2.113880      8.902030      8.577339
  H      -0.774676      7.973963      9.270216
  S      -7.307594      7.133638      3.846858
  C      -7.177120      8.657818      2.848127
  H      -8.093290      8.822323      2.267813
  H      -6.339901      8.605574      2.145880
  H      -7.016408      9.537503      3.478209
  Cu     -3.140097      7.261217      5.905182
12
Coordinates from ORCA-job 1_Cu2C2H6S2 E -4154.313102479783
  Cu     -5.303375      7.175387      4.885342
  S      -1.130791      7.396316      6.926192
  C      -1.638526      7.909464      8.604493
  H      -2.350889      7.203054      9.040489
  H      -2.120641      8.891484      8.595009
  H      -0.770267      7.967687      9.272257
  S      -7.316192      7.146199      3.863936
  C      -7.179024      8.654301      2.841468
  H      -8.096603      8.817041      2.262921
  H      -6.345333      8.584781      2.136542
  H      -7.008552      9.541916      3.457680
  Cu     -3.139547      7.279501      5.905010
12
Coordinates from ORCA-job 1_Cu2C2H6S2 E -4154.313108128355
  Cu     -5.301009      7.168600      4.880961
  S      -1.132087      7.386071      6.928456
  C      -1.640435      7.912247      8.602390
  H      -2.355971      7.211418      9.042178
  H      -2.118814      8.896014      8.585941
  H      -0.772905      7.971675      9.271037
  S      -7.312011      7.140535      3.856586
  C      -7.177868      8.655990      2.844917
  H      -8.094932      8.819623      2.265786
  H      -6.342746      8.594257      2.140956
  H      -7.011601      9.540005      3.467431
  Cu     -3.139361      7.270696      5.904698
12
Coordinates from ORCA-job 1_Cu2C2H6S2 E -4154.313058837160
  Cu     -5.301251      7.169741      4.881611
  S      -1.131921      7.387732      6.928044
  C      -1.640292      7.911836      8.602612
  H      -2.355494      7.210224      9.041694
  H      -2.119051      8.895434      8.587336
  H      -0.772693      7.970850      9.271207
  S      -7.312513      7.141333      3.857791
  C      -7.177933      8.655669      2.844502
  H      -8.095233      8.819300      2.265740
  H      -6.343270      8.592678      2.140110
  H      -7.010732      9.540196      3.466031
  Cu     -3.139357      7.272138      5.904658
