13
Coordinates from ORCA-job 2_Cu3C2H6S2 E -5794.064901928760
  Cu     -6.396354      6.676873      4.512935
  Cu     -3.994341      7.335361      3.648627
  S      -8.721449      6.151776      5.200069
  C      -9.497061      7.809129      5.140892
  H     -10.396324      7.816602      5.757643
  H      -9.777146      8.037637      4.111546
  H      -8.825046      8.587742      5.497833
  Cu     -7.729557      6.086018      7.401453
  S      -6.849247      5.978710      9.602281
  H      -5.037395      7.504993      8.961873
  H      -4.587674      5.824257      8.663027
  C      -5.110659      6.488828      9.351936
  H      -4.592701      6.456279     10.313337
13
Coordinates from ORCA-job 2_Cu3C2H6S2 E -5794.071628137936
  Cu     -6.402745      6.664125      4.532093
  Cu     -4.018439      7.322681      3.674363
  S      -8.690509      6.147117      5.217358
  C      -9.458031      7.805198      5.174758
  H     -10.358492      7.807020      5.789244
  H      -9.733620      8.043652      4.146972
  H      -8.783157      8.575408      5.542218
  Cu     -7.729320      6.063688      7.392931
  S      -6.872037      5.970310      9.562430
  H      -5.085922      7.521710      8.920844
  H      -4.610716      5.847167      8.624452
  C      -5.143460      6.505177      9.311245
  H      -4.628507      6.480953     10.274545
13
Coordinates from ORCA-job 2_Cu3C2H6S2 E -5794.085055917184
  Cu     -6.411657      6.653985      4.574862
  Cu     -4.075973      7.313110      3.729101
  S      -8.613912      6.137011      5.268277
  C      -9.385458      7.791712      5.232314
  H     -10.287918      7.784271      5.843504
  H      -9.656997      8.032802      4.204191
  H      -8.713184      8.559877      5.607500
  Cu     -7.733543      6.055123      7.393395
  S      -6.924243      5.973942      9.486163
  H      -5.156507      7.543077      8.841800
  H      -4.662243      5.872773      8.549470
  C      -5.202340      6.526827      9.233689
  H      -4.690977      6.509694     10.199187
13
Coordinates from ORCA-job 2_Cu3C2H6S2 E -5794.092049427852
  Cu     -6.416677      6.647317      4.598453
  Cu     -4.121758      7.307413      3.758057
  S      -8.562504      6.130553      5.301454
  C      -9.340032      7.784064      5.266696
  H     -10.243711      7.771341      5.875878
  H      -9.609906      8.026156      4.238323
  H      -8.670608      8.552797      5.645529
  Cu     -7.735076      6.047737      7.393021
  S      -6.958052      5.975095      9.435058
  H      -5.197526      7.555945      8.796599
  H      -4.690520      5.888873      8.507910
  C      -5.237687      6.539872      9.189235
  H      -4.730897      6.527042     10.157239
13
Coordinates from ORCA-job 2_Cu3C2H6S2 E -5794.098387882399
  Cu     -6.427276      6.637103      4.628770
  Cu     -4.203754      7.295582      3.788191
  S      -8.486556      6.125251      5.345958
  C      -9.277746      7.775783      5.310524
  H     -10.183323      7.753697      5.916464
  H      -9.545416      8.018299      4.281610
  H      -8.614476      8.547131      5.694582
  Cu     -7.732221      6.034481      7.385737
  S      -7.002164      5.972229      9.359301
  H      -5.250152      7.574405      8.745310
  H      -4.720850      5.913851      8.460298
  C      -5.282832      6.557568      9.136197
  H      -4.788187      6.548825     10.110511
13
Coordinates from ORCA-job 2_Cu3C2H6S2 E -5794.099769951092
  Cu     -6.440587      6.621622      4.638619
  Cu     -4.272725      7.270487      3.785262
  S      -8.443817      6.127493      5.359803
  C      -9.241529      7.777977      5.334035
  H     -10.150571      7.746109      5.934251
  H      -9.503190      8.029817      4.305821
  H      -8.582299      8.546320      5.730834
  Cu     -7.719979      6.005644      7.363318
  S      -7.017587      5.949798      9.310347
  H      -5.289379      7.593359      8.736427
  H      -4.721736      5.946637      8.445523
  C      -5.305829      6.572988      9.118854
  H      -4.825728      6.565954     10.100357
13
Coordinates from ORCA-job 2_Cu3C2H6S2 E -5794.100565432317
  Cu     -6.448180      6.623830      4.635601
  Cu     -4.296849      7.239447      3.762639
  S      -8.439487      6.138177      5.352290
  C      -9.247480      7.784383      5.325516
  H     -10.160960      7.744337      5.918483
  H      -9.502027      8.038062      4.296073
  H      -8.595740      8.554768      5.730780
  Cu     -7.707359      6.006052      7.348742
  S      -7.001785      5.924422      9.305256
  H      -5.293246      7.602811      8.776093
  H      -4.701812      5.970243      8.453806
  C      -5.297389      6.574527      9.137194
  H      -4.822639      6.553144     10.120978
13
Coordinates from ORCA-job 2_Cu3C2H6S2 E -5794.101626900833
  Cu     -6.464584      6.610844      4.623310
  Cu     -4.376701      7.178472      3.697178
  S      -8.440439      6.168844      5.325251
  C      -9.269829      7.804712      5.294143
  H     -10.194083      7.746819      5.868755
  H      -9.505744      8.061480      4.261387
  H      -8.635582      8.579404      5.718573
  Cu     -7.663675      6.002719      7.304590
  S      -6.952518      5.866539      9.302210
  H      -5.290685      7.618778      8.886096
  H      -4.643810      6.021525      8.496276
  C      -5.267733      6.574524      9.197871
  H      -4.809573      6.519545     10.187810
13
Coordinates from ORCA-job 2_Cu3C2H6S2 E -5794.101726616675
  Cu     -6.461374      6.625512      4.632474
  Cu     -4.378055      7.166282      3.701712
  S      -8.442963      6.179658      5.328396
  C      -9.288756      7.804904      5.276318
  H     -10.216383      7.742169      5.844859
  H      -9.519777      8.048318      4.239277
  H      -8.666020      8.590899      5.697125
  Cu     -7.656991      6.039967      7.309718
  S      -6.940074      5.866631      9.309020
  H      -5.268587      7.614786      8.917749
  H      -4.633623      6.020325      8.497793
  C      -5.251788      6.565006      9.210901
  H      -4.790563      6.489749     10.198110
13
Coordinates from ORCA-job 2_Cu3C2H6S2 E -5794.101883900425
  Cu     -6.453441      6.612927      4.643982
  Cu     -4.385895      7.171454      3.726207
  S      -8.454299      6.184349      5.328973
  C      -9.299303      7.807201      5.267265
  H     -10.230825      7.745381      5.829464
  H      -9.523514      8.046395      4.227682
  H      -8.680582      8.596095      5.688635
  Cu     -7.647795      6.048905      7.307358
  S      -6.933305      5.870307      9.311898
  H      -5.255028      7.612668      8.924740
  H      -4.628227      6.017252      8.496223
  C      -5.243181      6.561333      9.212619
  H      -4.779560      6.479938     10.198407
13
Coordinates from ORCA-job 2_Cu3C2H6S2 E -5794.101943782249
  Cu     -6.444409      6.616918      4.663153
  Cu     -4.375617      7.162859      3.767057
  S      -8.459915      6.186329      5.332980
  C      -9.306651      7.806432      5.265009
  H     -10.240662      7.743894      5.823015
  H      -9.527131      8.043207      4.223998
  H      -8.692057      8.598340      5.686847
  Cu     -7.645903      6.059042      7.309261
  S      -6.932013      5.874168      9.306974
  H      -5.249267      7.612744      8.919005
  H      -4.630117      6.017449      8.479958
  C      -5.240204      6.559948      9.201672
  H      -4.771006      6.472874     10.184523
13
Coordinates from ORCA-job 2_Cu3C2H6S2 E -5794.102043462939
  Cu     -6.436775      6.615140      4.685366
  Cu     -4.358633      7.153932      3.822563
  S      -8.467817      6.181979      5.332692
  C      -9.306647      7.806161      5.271223
  H     -10.242306      7.745517      5.826836
  H      -9.524419      8.050046      4.231206
  H      -8.690042      8.593741      5.698264
  Cu     -7.649833      6.047416      7.307100
  S      -6.934172      5.876027      9.296677
  H      -5.255993      7.616554      8.894359
  H      -4.636306      6.021423      8.456641
  C      -5.243694      6.564599      9.180089
  H      -4.768317      6.481670     10.160436
13
Coordinates from ORCA-job 2_Cu3C2H6S2 E -5794.102067580529
  Cu     -6.433396      6.613958      4.710168
  Cu     -4.341831      7.142013      3.881869
  S      -8.476140      6.176753      5.329819
  C      -9.306250      7.806279      5.276676
  H     -10.243420      7.747888      5.830155
  H      -9.521051      8.058777      4.238080
  H      -8.686464      8.587774      5.710256
  Cu     -7.656911      6.034588      7.303523
  S      -6.933412      5.874592      9.285627
  H      -5.264916      7.621766      8.871530
  H      -4.641017      6.029199      8.431429
  C      -5.245985      6.570231      9.158440
  H      -4.764162      6.490386     10.135880
13
Coordinates from ORCA-job 2_Cu3C2H6S2 E -5794.102184714088
  Cu     -6.431354      6.606203      4.770865
  Cu     -4.308366      7.113796      4.024319
  S      -8.497474      6.164521      5.319685
  C      -9.304688      7.807711      5.287382
  H     -10.245513      7.755691      5.835555
  H      -9.510987      8.081046      4.252329
  H      -8.675913      8.572624      5.737288
  Cu     -7.675248      6.004474      7.292699
  S      -6.926153      5.865445      9.260387
  H      -5.288547      7.635624      8.823587
  H      -4.649412      6.053082      8.371043
  C      -5.249357      6.584304      9.109219
  H      -4.751943      6.509683     10.079091
13
Coordinates from ORCA-job 2_Cu3C2H6S2 E -5794.102705488835
  Cu     -6.435029      6.592827      4.838069
  Cu     -4.281643      7.088158      4.178025
  S      -8.520687      6.153441      5.309460
  C      -9.304680      7.809765      5.293026
  H     -10.249474      7.765747      5.835201
  H      -9.500747      8.100016      4.260579
  H      -8.667077      8.558546      5.757256
  Cu     -7.694888      5.983250      7.282652
  S      -6.912115      5.852162      9.237296
  H      -5.310570      7.650043      8.785113
  H      -4.656785      6.082031      8.305233
  C      -5.248697      6.597214      9.060903
  H      -4.732563      6.521004     10.020639
13
Coordinates from ORCA-job 2_Cu3C2H6S2 E -5794.102305378457
  Cu     -6.445382      6.570696      4.899730
  Cu     -4.268239      7.080929      4.317717
  S      -8.543265      6.144450      5.305365
  C      -9.305583      7.812012      5.291040
  H     -10.253630      7.779241      5.828184
  H      -9.491838      8.108105      4.258386
  H      -8.659392      8.549371      5.761405
  Cu     -7.713674      5.975988      7.279192
  S      -6.894230      5.838430      9.224169
  H      -5.324837      7.661031      8.763093
  H      -4.664363      6.108686      8.244320
  C      -5.243773      6.605199      9.021767
  H      -4.706748      6.520068      9.969086
13
Coordinates from ORCA-job 2_Cu3C2H6S2 E -5794.102517537308
  Cu     -6.451909      6.558225      4.904983
  Cu     -4.271690      7.087649      4.329853
  S      -8.547984      6.145508      5.309858
  C      -9.307076      7.813918      5.285577
  H     -10.254394      7.785795      5.824020
  H      -9.493661      8.101811      4.250673
  H      -8.658330      8.553366      5.749034
  Cu     -7.714384      5.982752      7.281644
  S      -6.886375      5.829244      9.228217
  H      -5.326686      7.662960      8.777489
  H      -4.664997      6.119469      8.234785
  C      -5.240668      6.604214      9.022365
  H      -4.696800      6.509294      9.964953
13
Coordinates from ORCA-job 2_Cu3C2H6S2 E -5794.102531768057
  Cu     -6.453477      6.553662      4.897761
  Cu     -4.272193      7.083227      4.316052
  S      -8.546859      6.149861      5.313975
  C      -9.308516      7.816038      5.283407
  H     -10.253859      7.788338      5.825172
  H      -9.499043      8.096588      4.247214
  H      -8.659441      8.559906      5.739305
  Cu     -7.707823      5.986595      7.281343
  S      -6.882280      5.818875      9.230435
  H      -5.331714      7.665161      8.796535
  H      -4.664416      6.130988      8.234695
  C      -5.241138      6.603879      9.028713
  H      -4.694193      6.501088      9.968844
13
Coordinates from ORCA-job 2_Cu3C2H6S2 E -5794.102569360631
  Cu     -6.452810      6.549476      4.898962
  Cu     -4.264362      7.066618      4.326429
  S      -8.547666      6.153492      5.315716
  C      -9.309956      7.818605      5.284223
  H     -10.253106      7.791225      5.829774
  H      -9.504861      8.095663      4.247897
  H      -8.659743      8.564811      5.734693
  Cu     -7.701517      5.984562      7.277563
  S      -6.876974      5.805483      9.226080
  H      -5.343515      7.670971      8.810907
  H      -4.666845      6.150873      8.222770
  C      -5.243612      6.606970      9.026539
  H      -4.689987      6.495456      9.961897
13
Coordinates from ORCA-job 2_Cu3C2H6S2 E -5794.102565135831
  Cu     -6.450975      6.549392      4.897230
  Cu     -4.257794      7.056140      4.330307
  S      -8.546824      6.155482      5.316111
  C      -9.311059      7.819525      5.285249
  H     -10.252336      7.791758      5.834036
  H      -9.509983      8.095192      4.249300
  H      -8.660553      8.567433      5.732532
  Cu     -7.697723      5.982847      7.275285
  S      -6.876022      5.800945      9.223038
  H      -5.348850      7.674123      8.818789
  H      -4.669093      6.160639      8.217123
  C      -5.245304      6.608710      9.025801
  H      -4.688439      6.492019      9.958651
13
Coordinates from ORCA-job 2_Cu3C2H6S2 E -5794.102551453762
  Cu     -6.450216      6.550538      4.897423
  Cu     -4.254558      7.051549      4.336037
  S      -8.546513      6.156394      5.315846
  C      -9.312769      7.819558      5.284568
  H     -10.253046      7.791565      5.835099
  H      -9.513970      8.094224      4.248791
  H      -8.662498      8.568689      5.730195
  Cu     -7.696636      5.983598      7.274417
  S      -6.875788      5.801505      9.221302
  H      -5.348152      7.675383      8.823434
  H      -4.670064      6.164193      8.213893
  C      -5.244586      6.609018      9.025553
  H      -4.686158      6.487990      9.956894
13
Coordinates from ORCA-job 2_Cu3C2H6S2 E -5794.102557630813
  Cu     -6.450175      6.550198      4.898170
  Cu     -4.251788      7.048863      4.345899
  S      -8.547146      6.156747      5.314848
  C      -9.314543      7.819440      5.283427
  H     -10.253563      7.791853      5.836167
  H      -9.518317      8.093205      4.247921
  H      -8.663782      8.569288      5.727201
  Cu     -7.696675      5.984074      7.273440
  S      -6.875540      5.803739      9.219541
  H      -5.345987      7.676858      8.828171
  H      -4.671377      6.167670      8.209547
  C      -5.243135      6.609393      9.024815
  H      -4.682925      6.482875      9.954305
13
Coordinates from ORCA-job 2_Cu3C2H6S2 E -5794.102520578404
  Cu     -6.450779      6.550788      4.895395
  Cu     -4.251358      7.048896      4.346486
  S      -8.546991      6.157355      5.314301
  C      -9.316268      7.819085      5.281585
  H     -10.253939      7.791705      5.836621
  H      -9.522765      8.090832      4.246092
  H      -8.665220      8.570299      5.722653
  Cu     -7.696398      5.986713      7.273420
  S      -6.875706      5.806666      9.219643
  H      -5.341943      7.677265      8.834932
  H      -4.671489      6.168878      8.209522
  C      -5.241281      6.608775      9.027126
  H      -4.680817      6.476948      9.955677
13
Coordinates from ORCA-job 2_Cu3C2H6S2 E -5794.102555008849
  Cu     -6.451745      6.551103      4.893427
  Cu     -4.252164      7.050162      4.346518
  S      -8.547096      6.157554      5.313791
  C      -9.317256      7.818761      5.280156
  H     -10.254048      7.791579      5.836659
  H      -9.525417      8.088968      4.244594
  H      -8.665806      8.570800      5.719217
  Cu     -7.696526      5.989110      7.273603
  S      -6.875701      5.808870      9.220187
  H      -5.338551      7.677259      8.839221
  H      -4.671182      6.168984      8.210116
  C      -5.239846      6.608136      9.028891
  H      -4.679616      6.472919      9.957070
