19
Coordinates from ORCA-job 3_Cu4C3H9S3 E -7871.368013871700
  Cu     -4.817659      6.569817      3.300690
  S      -2.187172      7.462975      6.671667
  C      -3.449831      8.375832      7.631530
  H      -3.664028      7.820619      8.545399
  H      -4.374619      8.481168      7.062356
  H      -3.078610      9.366013      7.896352
  S      -5.687274      7.929179      1.741374
  C      -6.953927      8.726267      2.793973
  H      -7.048532      9.781411      2.536490
  H      -6.700375      8.634010      3.851310
  H      -7.911177      8.233738      2.618921
  Cu     -3.511602      6.413143      5.198772
  Cu     -3.798911      8.732346      2.514938
  Cu     -2.190808      8.509982      4.744579
  S      -1.847832      9.592564      2.899427
  C      -0.791128      8.381526      2.019288
  H      -0.809901      8.604083      0.952135
  H       0.232123      8.469930      2.384311
  H      -1.141294      7.361303      2.174275
19
Coordinates from ORCA-job 3_Cu4C3H9S3 E -7871.367929451320
  Cu     -4.815150      6.572083      3.300759
  S      -2.185491      7.466957      6.671636
  C      -3.452439      8.375050      7.630261
  H      -3.663837      7.819445      8.544598
  H      -4.377620      8.474887      7.060809
  H      -3.085387      9.366821      7.894757
  S      -5.686447      7.931320      1.742265
  C      -6.953748      8.726575      2.795721
  H      -7.048008      9.782194      2.540447
  H      -6.700285      8.631539      3.852874
  H      -7.910693      8.233739      2.619916
  Cu     -3.507988      6.415683      5.198028
  Cu     -3.797616      8.734829      2.514325
  Cu     -2.188723      8.513364      4.744067
  S      -1.845828      9.594049      2.897697
  C      -0.791354      8.379472      2.018245
  H      -0.810369      8.600411      0.950884
  H       0.231916      8.466967      2.383440
  H      -1.143491      7.360521      2.177059
19
Coordinates from ORCA-job 3_Cu4C3H9S3 E -7871.368020632494
  Cu     -4.798029      6.585335      3.300751
  S      -2.174779      7.491873      6.671506
  C      -3.469422      8.369966      7.621362
  H      -3.665633      7.812179      8.537948
  H      -4.395429      8.437671      7.048767
  H      -3.129403      9.371624      7.884040
  S      -5.681183      7.944177      1.748452
  C      -6.951226      8.728076      2.808166
  H      -7.044554      9.786309      2.565296
  H      -6.697555      8.618342      3.864052
  H      -7.906516      8.233816      2.627886
  Cu     -3.483001      6.430319      5.192245
  Cu     -3.789661      8.750363      2.510775
  Cu     -2.175628      8.534896      4.741227
  S      -1.833375      9.603277      2.887043
  C      -0.793869      8.366591      2.013256
  H      -0.814171      8.578055      0.944625
  H       0.229911      8.447380      2.378567
  H      -1.159032      7.355656      2.191823
19
Coordinates from ORCA-job 3_Cu4C3H9S3 E -7871.368270148761
  Cu     -4.789982      6.590128      3.300314
  S      -2.170604      7.501813      6.671770
  C      -3.477003      8.367904      7.616780
  H      -3.669888      7.808870      8.533294
  H      -4.401905      8.425246      7.041159
  H      -3.148026      9.373205      7.879515
  S      -5.678887      7.949321      1.751503
  C      -6.949147      8.728216      2.814710
  H      -7.043599      9.787218      2.575795
  H      -6.694597      8.614711      3.869992
  H      -7.903856      8.233366      2.633036
  Cu     -3.471568      6.435446      5.189292
  Cu     -3.786472      8.756892      2.509822
  Cu     -2.170323      8.543763      4.740655
  S      -1.828118      9.606717      2.883121
  C      -0.795418      8.361437      2.012225
  H      -0.816490      8.569431      0.942952
  H       0.229074      8.438988      2.376135
  H      -1.165748      7.353235      2.195720
19
Coordinates from ORCA-job 3_Cu4C3H9S3 E -7871.368079834358
  Cu     -4.767998      6.601061      3.297875
  S      -2.160872      7.526106      6.672789
  C      -3.496988      8.362957      7.603128
  H      -3.687059      7.799709      8.517493
  H      -4.416459      8.399815      7.016764
  H      -3.194857      9.376115      7.868119
  S      -5.673070      7.962241      1.759782
  C      -6.942113      8.727806      2.833688
  H      -7.042548      9.788079      2.602515
  H      -6.683209      8.608970      3.887250
  H      -7.895356      8.230686      2.650565
  Cu     -3.441040      6.446778      5.180454
  Cu     -3.778831      8.773691      2.508067
  Cu     -2.157279      8.565889      4.740109
  S      -1.814934      9.614823      2.874074
  C      -0.800258      8.348845      2.011563
  H      -0.823526      8.548113      0.940454
  H       0.226782      8.417571      2.369764
  H      -1.182941      7.346651      2.203335
19
Coordinates from ORCA-job 3_Cu4C3H9S3 E -7871.368119802743
  Cu     -4.751795      6.607243      3.294423
  S      -2.155496      7.541517      6.673567
  C      -3.511115      8.360244      7.591759
  H      -3.704197      7.793008      8.502899
  H      -4.424825      8.388295      6.995689
  H      -3.225094      9.377126      7.860641
  S      -5.669377      7.970957      1.765478
  C      -6.935820      8.726960      2.848573
  H      -7.042742      9.787574      2.621120
  H      -6.671717      8.607329      3.900685
  H      -7.888092      8.227351      2.667148
  Cu     -3.419375      6.452825      5.172848
  Cu     -3.774435      8.785360      2.507275
  Cu     -2.149268      8.580483      4.740517
  S      -1.806567      9.619741      2.868800
  C      -0.804303      8.340884      2.012580
  H      -0.828643      8.533882      0.940074
  H       0.224803      8.403029      2.366001
  H      -1.194499      7.342097      2.207711
19
Coordinates from ORCA-job 3_Cu4C3H9S3 E -7871.368141797629
  Cu     -4.736217      6.612090      3.288984
  S      -2.152074      7.554608      6.673795
  C      -3.524543      8.358599      7.579641
  H      -3.723295      7.786982      8.486760
  H      -4.431919      8.381634      6.973591
  H      -3.250826      9.377446      7.854163
  S      -5.666524      7.979367      1.770204
  C      -6.929188      8.726020      2.863628
  H      -7.043509      9.786646      2.639237
  H      -6.658063      8.606397      3.913917
  H      -7.880480      8.222904      2.686720
  Cu     -3.399226      6.457027      5.163881
  Cu     -3.771310      8.796500      2.506389
  Cu     -2.142971      8.593470      4.741085
  S      -1.799596      9.623821      2.864318
  C      -0.808157      8.333881      2.014155
  H      -0.833089      8.520135      0.940272
  H       0.222723      8.390282      2.363526
  H      -1.204292      7.338094      2.213521
19
Coordinates from ORCA-job 3_Cu4C3H9S3 E -7871.368162690834
  Cu     -4.721474      6.616141      3.281234
  S      -2.150761      7.565253      6.673324
  C      -3.537183      8.358174      7.567220
  H      -3.743023      7.782408      8.470149
  H      -4.438229      8.378741      6.951671
  H      -3.272058      9.377572      7.848248
  S      -5.664384      7.988180      1.773612
  C      -6.922551      8.724899      2.878602
  H      -7.044744      9.785421      2.657687
  H      -6.642937      8.604648      3.926596
  H      -7.872687      8.217299      2.708202
  Cu     -3.381145      6.459662      5.153454
  Cu     -3.769272      8.807531      2.505282
  Cu     -2.138317      8.604801      4.741743
  S      -1.793718      9.627039      2.860627
  C      -0.811546      8.327507      2.015935
  H      -0.836564      8.507024      0.940823
  H       0.220631      8.378964      2.362528
  H      -1.212593      7.334642      2.220850
19
Coordinates from ORCA-job 3_Cu4C3H9S3 E -7871.368142488261
  Cu     -4.700080      6.621793      3.266804
  S      -2.151196      7.578983      6.671736
  C      -3.555254      8.358859      7.549004
  H      -3.771339      7.777705      8.446169
  H      -4.447473      8.376767      6.920712
  H      -3.299714      9.378067      7.839449
  S      -5.661751      8.002258      1.777148
  C      -6.912813      8.722910      2.900685
  H      -7.046440      9.783419      2.686561
  H      -6.619567      8.599591      3.944647
  H      -7.860899      8.208046      2.740731
  Cu     -3.356581      6.462608      5.136357
  Cu     -3.767076      8.824270      2.503167
  Cu     -2.132978      8.620285      4.742650
  S      -1.785709      9.630987      2.855718
  C      -0.816016      8.318081      2.018436
  H      -0.840578      8.488446      0.941854
  H       0.217308      8.362809      2.362958
  H      -1.224397      7.330020      2.233002
19
Coordinates from ORCA-job 3_Cu4C3H9S3 E -7871.368155245683
  Cu     -4.672344      6.631550      3.247079
  S      -2.152267      7.597977      6.669174
  C      -3.578294      8.359528      7.526849
  H      -3.802359      7.772994      8.418667
  H      -4.460680      8.369335      6.884731
  H      -3.337114      9.379737      7.825760
  S      -5.657646      8.022992      1.781043
  C      -6.900841      8.719814      2.928497
  H      -7.047946      9.780811      2.726645
  H      -6.591399      8.588495      3.966885
  H      -7.845581      8.195879      2.778304
  Cu     -3.326143      6.469046      5.114362
  Cu     -3.763090      8.847726      2.499799
  Cu     -2.125568      8.641335      4.743180
  S      -1.773818      9.636646      2.848785
  C      -0.821734      8.304269      2.021221
  H      -0.845921      8.464109      0.943178
  H       0.212452      8.339568      2.364472
  H      -1.242265      7.324095      2.249155
19
Coordinates from ORCA-job 3_Cu4C3H9S3 E -7871.368166309892
  Cu     -4.654282      6.639401      3.231653
  S      -2.154390      7.609539      6.666644
  C      -3.592353      8.360446      7.514044
  H      -3.818810      7.771853      8.403955
  H      -4.469788      8.363843      6.865161
  H      -3.359982      9.381863      7.815614
  S      -5.654595      8.039056      1.782156
  C      -6.893482      8.716737      2.946050
  H      -7.049330      9.778397      2.755017
  H      -6.574096      8.577450      3.980418
  H      -7.835494      8.186939      2.799356
  Cu     -3.308888      6.474221      5.099315
  Cu     -3.760089      8.864797      2.497096
  Cu     -2.121231      8.654991      4.743348
  S      -1.765286      9.640133      2.844485
  C      -0.825213      8.294335      2.023293
  H      -0.848958      8.448874      0.944583
  H       0.209093      8.322988      2.366703
  H      -1.255383      7.320042      2.258899
19
Coordinates from ORCA-job 3_Cu4C3H9S3 E -7871.368187105775
  Cu     -4.634418      6.649352      3.209835
  S      -2.159423      7.619541      6.662427
  C      -3.605816      8.362773      7.502823
  H      -3.832372      7.773861      8.392497
  H      -4.480072      8.359868      6.849703
  H      -3.380355      9.385749      7.804132
  S      -5.650764      8.060167      1.780662
  C      -6.885828      8.711425      2.964193
  H      -7.051708      9.774224      2.788947
  H      -6.556077      8.559893      3.993608
  H      -7.824281      8.175310      2.817815
  Cu     -3.295121      6.480255      5.081557
  Cu     -3.756580      8.885916      2.493472
  Cu     -2.117836      8.668957      4.743582
  S      -1.755403      9.643324      2.840766
  C      -0.828837      8.282800      2.026145
  H      -0.851200      8.433937      0.947027
  H       0.205028      8.303127      2.371084
  H      -1.271495      7.315424      2.267512
19
Coordinates from ORCA-job 3_Cu4C3H9S3 E -7871.368202297322
  Cu     -4.629920      6.653853      3.196604
  S      -2.164914      7.617764      6.658802
  C      -3.605769      8.365506      7.504935
  H      -3.828166      7.779294      8.397373
  H      -4.483174      8.362390      6.856108
  H      -3.377247      9.389079      7.801731
  S      -5.649256      8.071130      1.775414
  C      -6.885191      8.707161      2.966608
  H      -7.054437      9.771062      2.801560
  H      -6.553588      8.546583      3.994061
  H      -7.821884      8.169476      2.815087
  Cu     -3.300585      6.482202      5.075082
  Cu     -3.755638      8.894996      2.491102
  Cu     -2.119377      8.670949      4.743500
  S      -1.752379      9.643132      2.841109
  C      -0.828847      8.278977      2.027622
  H      -0.849269      8.432449      0.948823
  H       0.204082      8.296208      2.375143
  H      -1.276998      7.313693      2.267126
19
Coordinates from ORCA-job 3_Cu4C3H9S3 E -7871.368202148410
  Cu     -4.624989      6.661091      3.180666
  S      -2.170845      7.616699      6.653759
  C      -3.603542      8.368081      7.510394
  H      -3.816953      7.785227      8.407096
  H      -4.486755      8.363014      6.869515
  H      -3.372856      9.393126      7.800245
  S      -5.646510      8.085674      1.767868
  C      -6.885520      8.701179      2.966799
  H      -7.057703      9.766876      2.816699
  H      -6.554459      8.526955      3.992233
  H      -7.820285      8.163275      2.804862
  Cu     -3.310270      6.487403      5.069058
  Cu     -3.753321      8.907016      2.487302
  Cu     -2.120707      8.674542      4.742474
  S      -1.747870      9.644122      2.840791
  C      -0.829692      8.274129      2.029850
  H      -0.847528      8.429308      0.951222
  H       0.202321      8.286458      2.379859
  H      -1.285072      7.311731      2.267095
19
Coordinates from ORCA-job 3_Cu4C3H9S3 E -7871.368176822068
  Cu     -4.628132      6.661079      3.178052
  S      -2.173022      7.612504      6.652203
  C      -3.598142      8.369129      7.516324
  H      -3.809129      7.786804      8.413919
  H      -4.484830      8.368106      6.880237
  H      -3.362540      9.393374      7.805159
  S      -5.646244      8.086574      1.763818
  C      -6.887445      8.699410      2.961544
  H      -7.058895      9.765674      2.814211
  H      -6.559114      8.522423      3.987418
  H      -7.822290      8.162882      2.795523
  Cu     -3.320077      6.487898      5.071019
  Cu     -3.753493      8.906773      2.486166
  Cu     -2.122936      8.671964      4.741850
  S      -1.748983      9.643880      2.841974
  C      -0.829542      8.275751      2.030514
  H      -0.846193      8.431679      0.951888
  H       0.202417      8.287745      2.380806
  H      -1.283966      7.312254      2.265164
19
Coordinates from ORCA-job 3_Cu4C3H9S3 E -7871.368188012415
  Cu     -4.620510      6.667359      3.164641
  S      -2.176743      7.615031      6.648019
  C      -3.598754      8.370674      7.517211
  H      -3.808034      7.786240      8.413839
  H      -4.487305      8.372529      6.883737
  H      -3.362237      9.394133      7.808247
  S      -5.643226      8.098542      1.758662
  C      -6.884706      8.694216      2.964230
  H      -7.060393      9.761448      2.828960
  H      -6.554748      8.507629      3.987986
  H      -7.818103      8.156617      2.793477
  Cu     -3.323901      6.493989      5.065358
  Cu     -3.750983      8.918199      2.482350
  Cu     -2.122639      8.678279      4.740395
  S      -1.744599      9.647191      2.840331
  C      -0.833514      8.271880      2.033378
  H      -0.848252      8.423258      0.953964
  H       0.198861      8.277667      2.382931
  H      -1.292770      7.311026      2.270070
19
Coordinates from ORCA-job 3_Cu4C3H9S3 E -7871.368184559186
  Cu     -4.620730      6.666173      3.166455
  S      -2.175878      7.615689      6.648357
  C      -3.599140      8.370354      7.516184
  H      -3.811462      7.783637      8.410657
  H      -4.486329      8.374890      6.880840
  H      -3.362000      9.392547      7.811190
  S      -5.643459      8.096339      1.759321
  C      -6.884001      8.694831      2.964303
  H      -7.059508      9.761834      2.827144
  H      -6.553488      8.510112      3.988249
  H      -7.817720      8.157003      2.795931
  Cu     -3.322693      6.493880      5.066318
  Cu     -3.751327      8.916764      2.482280
  Cu     -2.122490      8.678555      4.740027
  S      -1.745367      9.647899      2.839856
  C      -0.834190      8.272740      2.033305
  H      -0.849177      8.422255      0.953639
  H       0.198537      8.278803      2.382119
  H      -1.292134      7.311602      2.271612
19
Coordinates from ORCA-job 3_Cu4C3H9S3 E -7871.368251185866
  Cu     -4.618364      6.665422      3.166085
  S      -2.175645      7.617567      6.648281
  C      -3.601694      8.370454      7.513006
  H      -3.819595      7.779892      8.403654
  H      -4.486018      8.379462      6.873785
  H      -3.363651      9.390506      7.814659
  S      -5.643374      8.095684      1.760158
  C      -6.881558      8.694880      2.967172
  H      -7.058177      9.761542      2.829121
  H      -6.548336      8.511501      3.990519
  H      -7.815285      8.155793      2.802774
  Cu     -3.319243      6.494202      5.065346
  Cu     -3.751515      8.917353      2.481726
  Cu     -2.122026      8.680673      4.739546
  S      -1.745326      9.649302      2.838751
  C      -0.835655      8.272460      2.033477
  H      -0.850729      8.419421      0.953488
  H       0.197348      8.277817      2.381751
  H      -1.293714      7.311974      2.274488
19
Coordinates from ORCA-job 3_Cu4C3H9S3 E -7871.368165055098
  Cu     -4.614098      6.666811      3.162543
  S      -2.176293      7.620395      6.647271
  C      -3.604773      8.370821      7.510200
  H      -3.826172      7.776936      8.397796
  H      -4.487001      8.382860      6.868184
  H      -3.366731      9.389364      7.816914
  S      -5.642472      8.098726      1.760017
  C      -6.878833      8.693659      2.971073
  H      -7.057421      9.760297      2.835611
  H      -6.542765      8.508505      3.993204
  H      -7.812036      8.153174      2.808208
  Cu     -3.316383      6.496285      5.062854
  Cu     -3.750800      8.921250      2.480345
  Cu     -2.121132      8.684562      4.738778
  S      -1.743556      9.651192      2.837091
  C      -0.837441      8.270425      2.034056
  H      -0.852405      8.415098      0.953781
  H       0.195645      8.273842      2.382173
  H      -1.297890      7.311702      2.277689
19
Coordinates from ORCA-job 3_Cu4C3H9S3 E -7871.368184015585
  Cu     -4.614066      6.665958      3.161970
  S      -2.177178      7.619797      6.646913
  C      -3.605168      8.371353      7.509899
  H      -3.829150      7.775862      8.395755
  H      -4.486445      8.386946      6.866694
  H      -3.364943      9.388583      7.819251
  S      -5.642601      8.098444      1.759684
  C      -6.878071      8.693252      2.971909
  H      -7.056856      9.759847      2.836492
  H      -6.540914      8.508009      3.993655
  H      -7.811269      8.152536      2.809832
  Cu     -3.317162      6.496139      5.062914
  Cu     -3.751132      8.921251      2.479814
  Cu     -2.121557      8.684711      4.738351
  S      -1.743750      9.651451      2.836759
  C      -0.837310      8.270327      2.033953
  H      -0.852182      8.415523      0.953773
  H       0.195535      8.274017      2.382645
  H      -1.298338      7.311899      2.277525
