19
Coordinates from ORCA-job 3_Cu4C3H9S3 E -7871.368184015585
  Cu         -4.61406637159356      6.66595843135220      3.16196966502279
  S          -2.17717786137224      7.61979691587298      6.64691305817254
  C          -3.60516771939972      8.37135348336793      7.50989850683431
  H          -3.82915026304773      7.77586240261350      8.39575539696998
  H          -4.48644488743568      8.38694580243912      6.86669426759429
  H          -3.36494332470296      9.38858345364532      7.81925064279981
  S          -5.64260104068898      8.09844358590244      1.75968413089631
  C          -6.87807054723535      8.69325219669394      2.97190866589183
  H          -7.05685639724764      9.75984691471837      2.83649218233026
  H          -6.54091350814160      8.50800881998074      3.99365487879118
  H          -7.81126946486569      8.15253566832265      2.80983191957539
  Cu         -3.31716197239823      6.49613948390083      5.06291448197061
  Cu         -3.75113186226648      8.92125071616635      2.47981395597276
  Cu         -2.12155713900442      8.68471066851205      4.73835135086097
  S          -1.74374952876602      9.65145096123692      2.83675854956784
  C          -0.83730968912268      8.27032696445746      2.03395273375940
  H          -0.85218198086520      8.41552257944086      0.95377304918595
  H           0.19553506297948      8.27401717484713      2.38264521613514
  H          -1.29833750482517      7.31189877652888      2.27752534766852
