25
Coordinates from ORCA-job 4_Cu5C4H12S4 E -9948.644222277810
  Cu     -5.973674      7.734720      3.799734
  Cu     -3.616572      8.473362      3.489455
  S      -7.372324      5.919096      3.804785
  C      -9.050679      6.527187      4.192658
  H      -9.011030      7.563515      4.528894
  H      -9.506738      5.908375      4.964021
  H      -9.659633      6.470807      3.289368
  Cu     -6.266506      5.793359      5.628053
  S      -4.708387      5.965772      7.126977
  H      -6.097257      6.865062      8.901219
  H      -5.727972      8.116741      7.693333
  C      -5.323545      7.273382      8.251350
  H      -4.491790      7.621122      8.864180
  Cu     -4.113333      7.140128      5.343879
  Cu     -5.352870      9.692685      2.068011
  S      -7.250722      9.473826      3.030222
  C      -8.450104      8.791253      1.834997
  H      -9.442105      8.810313      2.288140
  H      -8.465794      9.397229      0.930122
  H      -8.192925      7.762290      1.582914
  S      -3.228832      9.640006      1.641392
  C      -3.063181      8.293160      0.411234
  H      -2.014288      8.001049      0.358626
  H      -3.657195      7.424918      0.693567
  H      -3.383390      8.647684     -0.568264
25
Coordinates from ORCA-job 4_Cu5C4H12S4 E -9948.644662230055
  Cu     -5.974474      7.735093      3.799913
  Cu     -3.617653      8.470173      3.486355
  S      -7.369772      5.914549      3.805451
  C      -9.046695      6.526711      4.194122
  H      -9.005208      7.562401      4.531760
  H      -9.505055      5.908274      4.964549
  H      -9.655827      6.473029      3.290695
  Cu     -6.264972      5.793891      5.628945
  S      -4.708299      5.965908      7.129386
  H      -6.102205      6.862584      8.901530
  H      -5.731851      8.115401      7.695500
  C      -5.327491      7.271953      8.253467
  H      -4.497710      7.620495      8.868562
  Cu     -4.116270      7.145770      5.347164
  Cu     -5.352354      9.692647      2.068183
  S      -7.249222      9.478727      3.031454
  C      -8.445408      8.792535      1.834589
  H      -9.437933      8.807709      2.286953
  H      -8.462895      9.398255      0.929526
  H      -8.185497      7.764347      1.582419
  S      -3.228683      9.639873      1.638775
  C      -3.066944      8.293267      0.407720
  H      -2.018375      8.000435      0.351867
  H      -3.660582      7.425055      0.690973
  H      -3.389470      8.647960     -0.570993
25
Coordinates from ORCA-job 4_Cu5C4H12S4 E -9948.645215416049
  Cu     -5.977509      7.737404      3.801737
  Cu     -3.624210      8.450849      3.467646
  S      -7.347319      5.881274      3.807250
  C      -9.016584      6.514812      4.200610
  H      -8.964906      7.546046      4.549074
  H      -9.488306      5.896057      4.963350
  H      -9.625608      6.478844      3.295915
  Cu     -6.250346      5.794913      5.632631
  S      -4.708309      5.970325      7.147902
  H      -6.140071      6.850854      8.901261
  H      -5.762499      8.109111      7.705334
  C      -5.358376      7.267319      8.265914
  H      -4.543299      7.623481      8.896424
  Cu     -4.134086      7.180937      5.367471
  Cu     -5.346847      9.694834      2.073619
  S      -7.236173      9.514522      3.045169
  C      -8.412671      8.809283      1.837104
  H      -9.407900      8.799096      2.284584
  H      -8.441320      9.416853      0.933314
  H      -8.134323      7.787154      1.580967
  S      -3.227010      9.635759      1.618738
  C      -3.096712      8.289333      0.383100
  H      -2.051614      7.988335      0.305724
  H      -3.690621      7.423980      0.674194
  H      -3.434228      8.645665     -0.590167
25
Coordinates from ORCA-job 4_Cu5C4H12S4 E -9948.645161790815
  Cu     -5.975700      7.738325      3.803016
  Cu     -3.624409      8.443833      3.461323
  S      -7.334429      5.868019      3.806194
  C      -9.003926      6.502105      4.199613
  H      -8.951464      7.530107      4.557071
  H      -9.479817      5.877762      4.955249
  H      -9.610062      6.475263      3.292617
  Cu     -6.241217      5.794559      5.632956
  S      -4.708804      5.976149      7.157535
  H      -6.158064      6.850636      8.900347
  H      -5.777894      8.109971      7.706677
  C      -5.373691      7.270370      8.270444
  H      -4.565193      7.630982      8.906895
  Cu     -4.138131      7.192328      5.374285
  Cu     -5.341575      9.696696      2.078353
  S      -7.227773      9.529440      3.054041
  C      -8.401592      8.823030      1.843086
  H      -9.396172      8.802580      2.291765
  H      -8.436356      9.436215      0.943239
  H      -8.116395      7.804711      1.579763
  S      -3.224384      9.630322      1.608699
  C      -3.109534      8.283610      0.371665
  H      -2.066338      7.978330      0.285618
  H      -3.704454      7.420514      0.667328
  H      -3.453472      8.641182     -0.598911
25
Coordinates from ORCA-job 4_Cu5C4H12S4 E -9948.645258904078
  Cu     -5.970312      7.738974      3.804926
  Cu     -3.621263      8.438151      3.456977
  S      -7.318639      5.856638      3.803446
  C      -8.992397      6.482248      4.194049
  H      -8.943754      7.505689      4.564606
  H      -9.471095      5.846957      4.938676
  H      -9.592460      6.465707      3.282805
  Cu     -6.229423      5.793623      5.632260
  S      -4.709795      5.985599      7.168724
  H      -6.177007      6.855976      8.898553
  H      -5.794282      8.114716      7.704796
  C      -5.390144      7.278686      8.273850
  H      -4.588194      7.644756      8.915410
  Cu     -4.137693      7.199118      5.379187
  Cu     -5.333083      9.698994      2.085411
  S      -7.216556      9.542700      3.065655
  C      -8.394757      8.842849      1.854299
  H      -9.386584      8.812902      2.308381
  H      -8.437523      9.466439      0.961901
  H      -8.104995      7.829432      1.577884
  S      -3.219569      9.621377      1.597858
  C      -3.121393      8.274080      0.359954
  H      -2.080347      7.963891      0.266039
  H      -3.718154      7.414124      0.660950
  H      -3.471427      8.633416     -0.607729
25
Coordinates from ORCA-job 4_Cu5C4H12S4 E -9948.645095535812
  Cu     -5.959401      7.739395      3.808128
  Cu     -3.613380      8.431784      3.453388
  S      -7.295645      5.845021      3.798158
  C      -8.978978      6.450444      4.180854
  H      -8.940846      7.466437      4.572307
  H      -9.460200      5.795942      4.906878
  H      -9.567412      6.448302      3.262024
  Cu     -6.211739      5.792321      5.630453
  S      -4.711780      6.001416      7.184434
  H      -6.201978      6.869118      8.894975
  H      -5.815400      8.125254      7.698903
  C      -5.411905      7.294978      8.276685
  H      -4.618245      7.668733      8.924007
  Cu     -4.132197      7.202633      5.383555
  Cu     -5.318476      9.701785      2.096930
  S      -7.199153      9.556785      3.083329
  C      -8.391103      8.873453      1.875230
  H      -9.376639      8.831853      2.341549
  H      -8.446835      9.514775      0.996124
  H      -8.098970      7.867437      1.575931
  S      -3.210965      9.606249      1.583668
  C      -3.135100      8.258216      0.345056
  H      -2.097063      7.941211      0.241754
  H      -3.734932      7.402990      0.653251
  H      -3.492504      8.620509     -0.618702
25
Coordinates from ORCA-job 4_Cu5C4H12S4 E -9948.645516733515
  Cu     -5.948537      7.739126      3.811041
  Cu     -3.604633      8.427529      3.452363
  S      -7.277844      5.840328      3.792865
  C      -8.970539      6.425061      4.166284
  H      -8.944578      7.434308      4.575714
  H      -9.453187      5.753466      4.875481
  H      -9.547796      6.434327      3.240563
  Cu     -6.197477      5.791369      5.628260
  S      -4.713425      6.014746      7.195681
  H      -6.219717      6.883739      8.890175
  H      -5.829652      8.135961      7.690464
  C      -5.427125      7.310710      8.276048
  H      -4.639398      7.690711      8.926865
  Cu     -4.124340      7.200722      5.385157
  Cu     -5.305377      9.703116      2.107204
  S      -7.184970      9.562787      3.098003
  C      -8.392795      8.897302      1.895790
  H      -9.371351      8.847146      2.375434
  H      -8.460526      9.554044      1.028946
  H      -8.102478      7.897309      1.575592
  S      -3.203051      9.593307      1.574620
  C      -3.143286      8.244744      0.335899
  H      -2.107583      7.922458      0.226451
  H      -3.745846      7.393274      0.649056
  H      -3.505337      8.609452     -0.625091
25
Coordinates from ORCA-job 4_Cu5C4H12S4 E -9948.645593053872
  Cu     -5.941465      7.738325      3.813171
  Cu     -3.598454      8.424225      3.452550
  S      -7.268829      5.841471      3.789163
  C      -8.967093      6.413103      4.155565
  H      -8.950178      7.418089      4.575866
  H      -9.450998      5.731383      4.854193
  H      -9.537032      6.428852      3.225480
  Cu     -6.189793      5.790841      5.626515
  S      -4.714219      6.021659      7.200705
  H      -6.228246      6.894993      8.885225
  H      -5.834957      8.143299      7.682343
  C      -5.433756      7.320910      8.272880
  H      -4.649051      7.704342      8.925306
  Cu     -4.118427      7.196814      5.385373
  Cu     -5.297264      9.702856      2.114319
  S      -7.177329      9.561509      3.106929
  C      -8.395914      8.908080      1.909748
  H      -9.369424      8.852643      2.398842
  H      -8.471872      9.573675      1.050358
  H      -8.108774      7.911402      1.576542
  S      -3.197918      9.586078      1.572318
  C      -3.146471      8.237759      0.333224
  H      -2.112141      7.912183      0.220760
  H      -3.751063      7.388306      0.647949
  H      -3.510178      8.604243     -0.626454
25
Coordinates from ORCA-job 4_Cu5C4H12S4 E -9948.645525233327
  Cu     -5.935847      7.737220      3.815309
  Cu     -3.593525      8.419835      3.452335
  S      -7.262159      5.844984      3.785547
  C      -8.963879      6.407549      4.146591
  H      -8.954566      7.409170      4.575223
  H      -9.449484      5.718728      4.837161
  H      -9.528558      6.428227      3.213446
  Cu     -6.183637      5.790360      5.624497
  S      -4.714186      6.025641      7.203339
  H      -6.234986      6.904821      8.878471
  H      -5.837588      8.148838      7.672800
  C      -5.438161      7.328631      8.267636
  H      -4.656377      7.714988      8.921864
  Cu     -4.114054      7.193629      5.386064
  Cu     -5.290906      9.701836      2.121449
  S      -7.172051      9.556933      3.115059
  C      -8.397895      8.912959      1.921423
  H      -9.367423      8.852217      2.417711
  H      -8.480937      9.584977      1.067694
  H      -8.113921      7.918785      1.577871
  S      -3.193926      9.581331      1.573023
  C      -3.149608      8.233532      0.333323
  H      -2.116632      7.904620      0.217955
  H      -3.756234      7.385665      0.648501
  H      -3.514307      8.601566     -0.625425
25
Coordinates from ORCA-job 4_Cu5C4H12S4 E -9948.645547876062
  Cu     -5.931012      7.735602      3.818119
  Cu     -3.589621      8.412446      3.450942
  S      -7.254647      5.847853      3.781524
  C      -8.958093      6.404635      4.139288
  H      -8.954600      7.403171      4.575311
  H      -9.445891      5.710391      4.823065
  H      -9.519271      6.430224      3.204151
  Cu     -6.177096      5.789433      5.622270
  S      -4.714029      6.027906      7.205990
  H      -6.244387      6.914593      8.868886
  H      -5.841009      8.153068      7.660174
  C      -5.444167      7.335418      8.260336
  H      -4.666594      7.725522      8.917436
  Cu     -4.111735      7.192285      5.388601
  Cu     -5.284767      9.700240      2.130550
  S      -7.166810      9.551924      3.125406
  C      -8.395972      8.915468      1.932462
  H      -9.362955      8.848199      2.432964
  H      -8.484989      9.593084      1.083746
  H      -8.113673      7.923937      1.579607
  S      -3.190369      9.577281      1.575138
  C      -3.156137      8.230859      0.333739
  H      -2.125109      7.897525      0.213368
  H      -3.765111      7.384778      0.649269
  H      -3.522802      8.601198     -0.623476
25
Coordinates from ORCA-job 4_Cu5C4H12S4 E -9948.645587579853
  Cu     -5.929247      7.734541      3.820275
  Cu     -3.588830      8.406541      3.449305
  S      -7.248982      5.848786      3.778265
  C      -8.951918      6.404939      4.137215
  H      -8.949587      7.402517      4.575518
  H      -9.440354      5.709597      4.819568
  H      -9.513755      6.432169      3.202468
  Cu     -6.172681      5.788540      5.620315
  S      -4.713482      6.027536      7.207103
  H      -6.252319      6.919420      8.860323
  H      -5.843745      8.153906      7.649822
  C      -5.449186      7.338061      8.253991
  H      -4.675297      7.730939      8.913856
  Cu     -4.112612      7.193963      5.391761
  Cu     -5.282073      9.699289      2.137860
  S      -7.164249      9.549041      3.133953
  C      -8.390588      8.915272      1.937341
  H      -9.358303      8.844082      2.435999
  H      -8.480246      9.595368      1.090636
  H      -8.107374      7.925250      1.580763
  S      -3.189399      9.575908      1.577547
  C      -3.164112      8.230304      0.334855
  H      -2.134832      7.893044      0.209990
  H      -3.774927      7.385837      0.651216
  H      -3.532750      8.602193     -0.621080
25
Coordinates from ORCA-job 4_Cu5C4H12S4 E -9948.645664772997
  Cu     -5.928200      7.733303      3.822372
  Cu     -3.588806      8.400839      3.447880
  S      -7.242647      5.846893      3.774881
  C      -8.944859      6.403234      4.137109
  H      -8.941478      7.400915      4.575176
  H      -9.432109      5.708153      4.820611
  H      -9.509183      6.430283      3.203782
  Cu     -6.168655      5.786999      5.618432
  S      -4.713705      6.027058      7.208822
  H      -6.261871      6.923813      8.851839
  H      -5.847825      8.154301      7.639333
  C      -5.455805      7.340608      8.248067
  H      -4.685710      7.736338      8.910706
  Cu     -4.114203      7.195485      5.394920
  Cu     -5.279936      9.698740      2.145318
  S      -7.161346      9.548766      3.143382
  C      -8.383163      8.916712      1.941008
  H      -9.353348      8.844430      2.434848
  H      -8.469621      9.598415      1.095214
  H      -8.098198      7.927559      1.583421
  S      -3.189010      9.574162      1.579259
  C      -3.173703      8.229908      0.334635
  H      -2.146266      7.888844      0.204875
  H      -3.786234      7.387233      0.652419
  H      -3.544963      8.604050     -0.619441
25
Coordinates from ORCA-job 4_Cu5C4H12S4 E -9948.645689033938
  Cu     -5.928236      7.732752      3.823189
  Cu     -3.589159      8.399777      3.448359
  S      -7.239729      5.844941      3.772895
  C      -8.941704      6.401802      4.137508
  H      -8.936458      7.400723      4.572649
  H      -9.426947      5.708366      4.824004
  H      -9.508315      6.426445      3.205458
  Cu     -6.167587      5.785854      5.617337
  S      -4.714235      6.026566      7.209255
  H      -6.265564      6.925438      8.848490
  H      -5.850080      8.153968      7.634265
  C      -5.458803      7.341664      8.245299
  H      -4.689793      7.738794      8.908344
  Cu     -4.114884      7.195187      5.395784
  Cu     -5.279817      9.699045      2.148750
  S      -7.160383      9.549726      3.148088
  C      -8.379469      8.917778      1.942099
  H      -9.351960      8.848236      2.431816
  H      -8.461158      9.598863      1.095333
  H      -8.093893      7.927969      1.587009
  S      -3.189515      9.573406      1.580222
  C      -3.178532      8.229676      0.334653
  H      -2.151820      7.887191      0.202987
  H      -3.791717      7.387888      0.653503
  H      -3.551087      8.604987     -0.618427
25
Coordinates from ORCA-job 4_Cu5C4H12S4 E -9948.645652978037
  Cu     -5.928632      7.732162      3.823529
  Cu     -3.589411      8.400371      3.450007
  S      -7.238251      5.843434      3.770761
  C      -8.940299      6.400675      4.137692
  H      -8.932947      7.401609      4.568063
  H      -9.422622      5.709843      4.828706
  H      -9.509521      6.421136      3.207108
  Cu     -6.168002      5.784554      5.616014
  S      -4.715210      6.025842      7.208699
  H      -6.267266      6.927254      8.845878
  H      -5.850760      8.154050      7.629790
  C      -5.460229      7.342783      8.242631
  H      -4.691193      7.740457      8.905285
  Cu     -4.114846      7.192803      5.395249
  Cu     -5.280457      9.699572      2.151349
  S      -7.160189      9.550405      3.151768
  C      -8.377464      8.918163      1.943056
  H      -9.352368      8.854221      2.428720
  H      -8.452746      9.597067      1.093999
  H      -8.092550      7.926484      1.592892
  S      -3.190301      9.572875      1.581795
  C      -3.181336      8.229760      0.335269
  H      -2.154880      7.886890      0.202857
  H      -3.794761      7.388421      0.654768
  H      -3.554605      8.606211     -0.617018
25
Coordinates from ORCA-job 4_Cu5C4H12S4 E -9948.645963732119
  Cu     -5.928617      7.731815      3.823664
  Cu     -3.589130      8.401382      3.451568
  S      -7.237487      5.842993      3.769150
  C      -8.940028      6.399789      4.136279
  H      -8.932265      7.401919      4.563831
  H      -9.420824      5.710370      4.829664
  H      -9.510004      6.417475      3.206104
  Cu     -6.168440      5.783820      5.614984
  S      -4.715929      6.025816      7.208129
  H      -6.267301      6.929131      8.844632
  H      -5.850722      8.154711      7.627051
  C      -5.460394      7.344119      8.240889
  H      -4.690918      7.742099      8.902818
  Cu     -4.114094      7.190335      5.394315
  Cu     -5.280788      9.699990      2.153032
  S      -7.160092      9.550496      3.154094
  C      -8.377552      8.918572      1.944877
  H      -9.353216      8.858079      2.429408
  H      -8.449752      9.596077      1.094469
  H      -8.093806      7.925624      1.597464
  S      -3.190688      9.572230      1.582918
  C      -3.182097      8.229322      0.336056
  H      -2.155627      7.886508      0.203640
  H      -3.795564      7.388105      0.655777
  H      -3.555511      8.606263     -0.615946
25
Coordinates from ORCA-job 4_Cu5C4H12S4 E -9948.645635460512
  Cu     -5.927543      7.731311      3.824199
  Cu     -3.587860      8.401138      3.452848
  S      -7.235013      5.842320      3.766890
  C      -8.938664      6.397149      4.132902
  H      -8.932102      7.399642      4.559601
  H      -9.418668      5.707674      4.826745
  H      -9.508123      6.413335      3.202398
  Cu     -6.167555      5.783055      5.613668
  S      -4.716833      6.026848      7.208508
  H      -6.269327      6.933017      8.842112
  H      -5.851506      8.156632      7.622826
  C      -5.461888      7.347054      8.238454
  H      -4.692809      7.745908      8.900288
  Cu     -4.112721      7.187846      5.393851
  Cu     -5.279667      9.700294      2.156178
  S      -7.158548      9.550802      3.158201
  C      -8.377553      8.920627      1.949326
  H      -9.353191      8.862666      2.434198
  H      -8.448157      9.597506      1.098326
  H      -8.095778      7.926732      1.603053
  S      -3.190159      9.570333      1.583737
  C      -3.183840      8.227904      0.336339
  H      -2.157714      7.884614      0.202673
  H      -3.797483      7.386993      0.656526
  H      -3.558145      8.605641     -0.614981
25
Coordinates from ORCA-job 4_Cu5C4H12S4 E -9948.645663531977
  Cu     -5.927091      7.730990      3.824382
  Cu     -3.587180      8.400173      3.452899
  S      -7.234373      5.842012      3.766451
  C      -8.938397      6.396078      4.131487
  H      -8.932797      7.398205      4.559067
  H      -9.418867      5.705972      4.824413
  H      -9.507059      6.412738      3.200511
  Cu     -6.167282      5.782950      5.613481
  S      -4.717198      6.027460      7.208932
  H      -6.270028      6.934761      8.841535
  H      -5.851609      8.157698      7.621834
  C      -5.462288      7.348307      8.237920
  H      -4.693401      7.747408      8.899841
  Cu     -4.112234      7.187173      5.393893
  Cu     -5.278963      9.700083      2.157195
  S      -7.157828      9.550845      3.159338
  C      -8.377766      8.921521      1.951092
  H      -9.352857      8.863073      2.437023
  H      -8.449323      9.598732      1.100441
  H      -8.096546      7.927747      1.603972
  S      -3.189636      9.569373      1.583973
  C      -3.183970      8.227487      0.336137
  H      -2.157940      7.884169      0.201791
  H      -3.797553      7.386465      0.656145
  H      -3.558658      8.605617     -0.614887
25
Coordinates from ORCA-job 4_Cu5C4H12S4 E -9948.645693956056
  Cu     -5.927183      7.729879      3.824655
  Cu     -3.586120      8.397498      3.453386
  S      -7.234644      5.841137      3.765690
  C      -8.938975      6.394644      4.128876
  H      -8.935029      7.396479      4.557189
  H      -9.420433      5.704269      4.820926
  H      -9.506504      6.411314      3.197219
  Cu     -6.168356      5.782572      5.613124
  S      -4.718373      6.027870      7.209094
  H      -6.269802      6.939341      8.840581
  H      -5.849832      8.160235      7.619611
  C      -5.461457      7.350879      8.236380
  H      -4.692170      7.749916      8.897907
  Cu     -4.111643      7.184842      5.393708
  Cu     -5.278439      9.699406      2.159650
  S      -7.157387      9.550573      3.161474
  C      -8.378235      8.922382      1.953942
  H      -9.352548      8.862969      2.441362
  H      -8.451314      9.599629      1.103458
  H      -8.097978      7.928640      1.605782
  S      -3.189005      9.567639      1.585956
  C      -3.183303      8.227600      0.336534
  H      -2.157199      7.884958      0.200907
  H      -3.796294      7.385678      0.655348
  H      -3.558621      8.606693     -0.613892
25
Coordinates from ORCA-job 4_Cu5C4H12S4 E -9948.645658178406
  Cu     -5.927019      7.729140      3.824950
  Cu     -3.585255      8.394840      3.453045
  S      -7.233992      5.839819      3.765429
  C      -8.938652      6.392467      4.127656
  H      -8.935717      7.393590      4.557643
  H      -9.420863      5.700996      4.818143
  H      -9.505318      6.410399      3.195481
  Cu     -6.168293      5.782555      5.613136
  S      -4.718959      6.028745      7.209910
  H      -6.270802      6.942062      8.840026
  H      -5.850095      8.161751      7.618226
  C      -5.462076      7.352757      8.235716
  H      -4.693031      7.752261      8.897246
  Cu     -4.111397      7.184457      5.394224
  Cu     -5.277650      9.698787      2.161514
  S      -7.156525      9.551047      3.163311
  C      -8.377801      8.924139      1.955753
  H      -9.351699      8.863267      2.443829
  H      -8.452106      9.602556      1.106290
  H      -8.097541      7.931082      1.605635
  S      -3.188360      9.566016      1.586606
  C      -3.183718      8.227319      0.335884
  H      -2.157769      7.884621      0.199091
  H      -3.796594      7.385078      0.654104
  H      -3.559613      8.607291     -0.613979
25
Coordinates from ORCA-job 4_Cu5C4H12S4 E -9948.645591093735
  Cu     -5.926361      7.726818      3.826048
  Cu     -3.582853      8.387574      3.452529
  S      -7.231558      5.835877      3.764524
  C      -8.937025      6.386594      4.124974
  H      -8.935585      7.386083      4.558780
  H      -9.420649      5.692474      4.811863
  H      -9.501899      6.407859      3.191755
  Cu     -6.167762      5.781985      5.613151
  S      -4.720631      6.030811      7.212365
  H      -6.274663      6.949631      8.837573
  H      -5.851443      8.165492      7.612945
  C      -5.464733      7.358008      8.233263
  H      -4.696605      7.759131      8.894880
  Cu     -4.110604      7.182989      5.395868
  Cu     -5.275386      9.697086      2.167278
  S      -7.154000      9.551975      3.169124
  C      -8.375800      8.928624      1.960382
  H      -9.349315      8.864754      2.448860
  H      -8.451752      9.610460      1.113752
  H      -8.095009      7.937394      1.605566
  S      -3.186649      9.561569      1.588723
  C      -3.186279      8.226730      0.333980
  H      -2.161069      7.883181      0.193854
  H      -3.799424      7.384169      0.650857
  H      -3.563789      8.609773     -0.614028
25
Coordinates from ORCA-job 4_Cu5C4H12S4 E -9948.645652623452
  Cu     -5.925767      7.725498      3.826603
  Cu     -3.581303      8.383551      3.452079
  S      -7.230373      5.833927      3.764659
  C      -8.936353      6.383608      4.124340
  H      -8.935345      7.382044      4.560542
  H      -9.420651      5.687673      4.808900
  H      -9.500184      6.407260      3.190545
  Cu     -6.167285      5.781878      5.613647
  S      -4.721210      6.032033      7.213897
  H      -6.276816      6.952838      8.836665
  H      -5.852686      8.167073      7.610712
  C      -5.466432      7.360506      8.232496
  H      -4.698880      7.762564      8.894209
  Cu     -4.109947      7.182609      5.396954
  Cu     -5.273982      9.695869      2.169803
  S      -7.152628      9.552004      3.171508
  C      -8.374851      8.930857      1.962006
  H      -9.348135      8.864942      2.450674
  H      -8.451821      9.615385      1.117607
  H      -8.093284      7.941066      1.603916
  S      -3.185514      9.559249      1.589625
  C      -3.187607      8.226587      0.332488
  H      -2.162858      7.882246      0.190935
  H      -3.801318      7.384136      0.648558
  H      -3.565614      8.611636     -0.614500
25
Coordinates from ORCA-job 4_Cu5C4H12S4 E -9948.645665883114
  Cu     -5.925457      7.724848      3.826794
  Cu     -3.580473      8.382308      3.452218
  S      -7.230229      5.833452      3.765138
  C      -8.936332      6.383379      4.124646
  H      -8.934772      7.381763      4.560918
  H      -9.420682      5.687222      4.808899
  H      -9.499920      6.407535      3.190724
  Cu     -6.167233      5.781879      5.614190
  S      -4.721156      6.032259      7.214357
  H      -6.277266      6.953155      8.836645
  H      -5.853352      8.167068      7.610147
  C      -5.466999      7.360984      8.232461
  H      -4.699537      7.763435      8.894025
  Cu     -4.109356      7.182426      5.397419
  Cu     -5.273632      9.695212      2.170417
  S      -7.152458      9.551266      3.171863
  C      -8.374666      8.930788      1.961800
  H      -9.348105      8.864734      2.450103
  H      -8.451232      9.616331      1.118186
  H      -8.092698      7.941410      1.602989
  S      -3.185145      9.558651      1.590227
  C      -3.188148      8.226946      0.331844
  H      -2.163634      7.881933      0.190275
  H      -3.802595      7.384840      0.647362
  H      -3.565770      8.613217     -0.614779
