12
Coordinates from ORCA-job 1_l-cys
  S   -2.52660598591192     -0.38922615979834     -0.02838703295964
  O   2.17549712848327      0.70731556780741     -0.79680239590275
  O   2.22087629294403     -1.22631257054782      0.37504343787597
  N   -0.05680913756528      1.55266240227901      0.55422660173040
  C   0.22587451336254      0.11121476308552      0.49219876103045
  C   -0.74865095119019     -0.65730042396082     -0.43094914452635
  C   1.67097049316696     -0.14901963550103     -0.00653504070393
  H   0.13296281205887     -0.31913751876921      1.50480585182553
  H   -0.55631368649140     -0.33444701435800     -1.46952216649130
  H   -0.50684815131261     -1.73065127994083     -0.37204405421500
  H   -1.07533439733553      1.64297437731791      0.41127816381949
  H   0.40182306979127      1.95633149238622     -0.27219998148288
