12
Coordinates from ORCA-job 1_l-cys E -720.624352985292
  S      -2.549627     -0.234445     -0.063026
  O       2.094971      0.627594     -0.941912
  O       2.370056     -1.095577      0.537389
  N      -0.055718      1.540609      0.598404
  C       0.235518      0.062108      0.520727
  C      -0.753514     -0.623894     -0.458061
  C       1.711214     -0.161312     -0.017565
  H       0.138664     -0.355813      1.529319
  H      -0.514809     -0.319948     -1.485941
  H      -0.570148     -1.705577     -0.426907
  H      -1.078114      1.547414      0.456944
  H       0.328949      1.883245     -0.288258
12
Coordinates from ORCA-job 1_l-cys E -720.625399422043
  S      -2.529881     -0.319368     -0.085089
  O       2.062340      0.581847     -0.964133
  O       2.295806     -1.147601      0.481165
  N      -0.049298      1.558398      0.605920
  C       0.230215      0.091114      0.519817
  C      -0.732429     -0.630880     -0.450623
  C       1.696251     -0.132272      0.018206
  H       0.127839     -0.337564      1.527118
  H      -0.499218     -0.311292     -1.478842
  H      -0.520548     -1.712821     -0.411328
  H      -1.077300      1.600174      0.467527
  H       0.353665      1.924670     -0.268625
12
Coordinates from ORCA-job 1_l-cys E -720.626750821057
  S      -2.519531     -0.390736     -0.085153
  O       2.086011      0.619351     -0.905688
  O       2.277212     -1.122467      0.492298
  N      -0.015222      1.548776      0.592716
  C       0.218894      0.098966      0.484507
  C      -0.746625     -0.649035     -0.446376
  C       1.646449     -0.152415     -0.011142
  H       0.126069     -0.348956      1.491183
  H      -0.534427     -0.317464     -1.481005
  H      -0.526870     -1.736372     -0.392475
  H      -1.048746      1.668050      0.494635
  H       0.394228      1.946705     -0.272386
12
Coordinates from ORCA-job 1_l-cys E -720.627823036687
  S      -2.527619     -0.359789     -0.059092
  O       2.123646      0.640891     -0.885441
  O       2.285072     -1.158028      0.472692
  N      -0.038256      1.548280      0.580421
  C       0.226091      0.096844      0.493074
  C      -0.748032     -0.642351     -0.445768
  C       1.674869     -0.154437     -0.004824
  H       0.126852     -0.339545      1.501623
  H      -0.538648     -0.314190     -1.478946
  H      -0.527810     -1.722578     -0.398287
  H      -1.064324      1.634231      0.469891
  H       0.365603      1.935076     -0.284230
12
Coordinates from ORCA-job 1_l-cys E -720.627980021208
  S      -2.525612     -0.372859     -0.041280
  O       2.148064      0.666260     -0.848262
  O       2.259377     -1.191030      0.437660
  N      -0.044009      1.550521      0.567569
  C       0.227507      0.103181      0.492072
  C      -0.747287     -0.645908     -0.441395
  C       1.676191     -0.153205     -0.000654
  H       0.127135     -0.329742      1.502106
  H      -0.547583     -0.315877     -1.475811
  H      -0.517504     -1.722925     -0.393247
  H      -1.067697      1.635186      0.452333
  H       0.368861      1.940802     -0.289980
12
Coordinates from ORCA-job 1_l-cys E -720.628071645683
  S      -2.523936     -0.391918     -0.021473
  O       2.178909      0.695280     -0.801390
  O       2.225605     -1.225784      0.392388
  N      -0.051697      1.553690      0.553017
  C       0.228208      0.111581      0.489965
  C      -0.747200     -0.652887     -0.435309
  C       1.674608     -0.152710     -0.000640
  H       0.128537     -0.318130      1.502074
  H      -0.559351     -0.322029     -1.472053
  H      -0.504591     -1.726229     -0.384446
  H      -1.072933      1.640581      0.428259
  H       0.381285      1.952959     -0.289278
12
Coordinates from ORCA-job 1_l-cys E -720.628082853215
  S      -2.524540     -0.393075     -0.021255
  O       2.180020      0.700399     -0.796806
  O       2.221654     -1.227725      0.384873
  N      -0.053634      1.553502      0.552147
  C       0.227571      0.111987      0.490328
  C      -0.747688     -0.655034     -0.433710
  C       1.673057     -0.151771     -0.002790
  H       0.129568     -0.317492      1.502809
  H      -0.559969     -0.325745     -1.471072
  H      -0.503885     -1.728086     -0.380927
  H      -1.074048      1.641780      0.421021
  H       0.389337      1.955664     -0.283503
12
Coordinates from ORCA-job 1_l-cys E -720.628089196051
  S      -2.525718     -0.391259     -0.024914
  O       2.177247      0.704986     -0.796388
  O       2.220387     -1.226896      0.378166
  N      -0.055915      1.552881      0.553052
  C       0.226454      0.111515      0.491497
  C      -0.748294     -0.657058     -0.431832
  C       1.671324     -0.150042     -0.005628
  H       0.131304     -0.318164      1.504184
  H      -0.558250     -0.331267     -1.469914
  H      -0.505054     -1.730225     -0.375562
  H      -1.075115      1.642719      0.413490
  H       0.399073      1.957213     -0.275037
12
Coordinates from ORCA-job 1_l-cys E -720.628090078991
  S      -2.526259     -0.389984     -0.027074
  O       2.176112      0.706730     -0.796438
  O       2.220446     -1.226650      0.375657
  N      -0.056626      1.552710      0.553683
  C       0.226058      0.111318      0.492002
  C      -0.748507     -0.657411     -0.431158
  C       1.670993     -0.149327     -0.006351
  H       0.132248     -0.318648      1.504685
  H      -0.557043     -0.333485     -1.469559
  H      -0.506054     -1.730679     -0.373164
  H      -1.075344      1.642916      0.411606
  H       0.401417      1.956914     -0.272776
12
Coordinates from ORCA-job 1_l-cys E -720.628090400455
  S      -2.526606     -0.389226     -0.028387
  O       2.175497      0.707316     -0.796802
  O       2.220876     -1.226313      0.375043
  N      -0.056809      1.552662      0.554227
  C       0.225875      0.111215      0.492199
  C      -0.748651     -0.657300     -0.430949
  C       1.670970     -0.149020     -0.006535
  H       0.132963     -0.319138      1.504806
  H      -0.556314     -0.334447     -1.469522
  H      -0.506848     -1.730651     -0.372044
  H      -1.075334      1.642974      0.411278
  H       0.401823      1.956331     -0.272200
