27
Coordinates from ORCA-job 0_Cu_Cys2 E -3080.354973983975
  S           3.49823208380438      1.24447178109084     -1.08506597318329
  O           2.65178669550838      2.36683980165063      2.77775747849066
  O           1.13765679190825      3.22491723781937      1.34127952750649
  N           0.53889335885685      0.28052038131883      1.56459496645847
  C           1.80047603674160      0.90549814323969      1.11739364180518
  C           1.82937749940964      0.97095434201835     -0.40104720886796
  C           1.82457066542872      2.30230725284406      1.71566153256434
  H           2.69198185798515      0.37170320697907      1.46193147514347
  H           1.48223769751138      0.00595975441512     -0.78788006415331
  H           1.12483072141832      1.73711684641669     -0.72966033076174
  H           0.53940226449939      0.21981190339573      2.58028487667318
  H           0.53279806034467     -0.67699294118554      1.22299400914749
  H           2.67498186314199      3.30145166243469      3.08902403216781
  Cu          4.20384360202890      3.05426846154252     -0.21995177557635
  S           4.96555726114052      4.83761153954051      0.67005242740138
  O           3.70244457583889      7.07553236369235      3.24244837680197
  O           3.03322271564276      4.98727925536127      3.67706376318428
  N           5.86565275795273      4.98754542871473      4.63530767664763
  C           5.40268282486927      5.40763228631774      3.30534218763293
  C           5.56446089110774      4.27934124793926      2.30000712306681
  C           3.93176403098317      5.75551447791664      3.40963447585880
  H           5.92335203690627      6.29075531333811      2.91936792956178
  H           6.62822235860199      4.01945921178026      2.25208040912342
  H           5.01709254735944      3.40527960796800      2.65630009656176
  H           6.10558783072401      5.79981679208286      5.19568522577786
  H           6.71864912791131      4.44989729567441      4.51562971502351
  H           2.73341256737401      7.16583139969354      3.27030371994325
