27
Coordinates from ORCA-job 0_Cu_Cys2 E -3080.205369652876
  S       2.461362      0.944328      0.420668
  O      -1.972038      0.877928      0.490468
  O      -0.193238      1.786028     -0.585132
  N      -0.724438     -1.545172     -0.213232
  C       0.044662     -0.432572      0.347668
  C       1.465062     -0.439072     -0.220432
  C      -0.699438      0.848428      0.020168
  H       0.084362     -0.529672      1.439468
  H       1.976662     -1.370672      0.045068
  H       1.455762     -0.362972     -1.313832
  H      -1.634338     -1.595572      0.243968
  H      -0.253838     -2.424872     -0.004232
  H      -2.421538      1.723328      0.277268
  Cu      3.905451      2.949500      1.349911
  S       5.386729      5.067343      2.417184
  O       5.929531      8.493577      5.179538
  O       4.937365      6.462490      4.989854
  N       8.257188      7.031155      4.574190
  C       7.019795      6.832346      3.816999
  C       6.924394      5.381447      3.341492
  C       5.863870      7.218097      4.720844
  H       7.009489      7.505104      2.950788
  H       7.765702      5.141106      2.682295
  H       6.952316      4.683976      4.186569
  H       8.363579      8.019589      4.800393
  H       9.056888      6.786796      3.991279
  H       5.161865      8.718332      5.747324
27
Coordinates from ORCA-job 0_Cu_Cys2 E -3080.227888657830
  S       2.484727      1.047635      0.446114
  O      -2.018949      0.728567      0.443554
  O      -0.387057      1.756249     -0.716582
  N      -0.630229     -1.560173     -0.192867
  C       0.078392     -0.384700      0.343140
  C       1.505448     -0.352146     -0.187794
  C      -0.757587      0.819118     -0.045958
  H       0.113912     -0.429917      1.439870
  H       2.018871     -1.266478      0.124568
  H       1.506001     -0.318523     -1.280737
  H      -1.541791     -1.639560      0.250981
  H      -0.116063     -2.400001      0.058086
  H      -2.525501      1.511755      0.175266
  Cu      3.872043      3.039927      1.348567
  S       5.262513      5.141471      2.376446
  O       6.121446      8.545694      5.177032
  O       4.949352      6.624236      5.148838
  N       8.249141      6.914760      4.552676
  C       6.979026      6.794013      3.818085
  C       6.798983      5.362479      3.335029
  C       5.899184      7.271541      4.769500
  H       6.979876      7.462228      2.945969
  H       7.635176      5.102657      2.678217
  H       6.799595      4.669264      4.181047
  H       8.420633      7.892169      4.774970
  H       9.011280      6.620490      3.948317
  H       5.414748      8.817571      5.784205
27
Coordinates from ORCA-job 0_Cu_Cys2 E -3080.246182882280
  S       2.533749      1.173875      0.476027
  O      -1.955692      0.703635      0.467551
  O      -0.417449      1.779051     -0.757919
  N      -0.513481     -1.518181     -0.130173
  C       0.164639     -0.303608      0.379123
  C       1.585199     -0.251021     -0.136876
  C      -0.707790      0.853089     -0.054658
  H       0.205029     -0.300980      1.477266
  H       2.100980     -1.149843      0.212931
  H       1.581838     -0.255397     -1.228943
  H      -1.423363     -1.606149      0.311311
  H       0.026940     -2.329562      0.152467
  H      -2.475348      1.459449      0.161710
  Cu      3.836114      3.155524      1.328777
  S       5.099775      5.242650      2.292394
  O       6.200802      8.494863      5.148265
  O       4.881725      6.682048      5.163778
  N       8.176709      6.738787      4.528099
  C       6.897402      6.712328      3.785049
  C       6.635775      5.316069      3.272113
  C       5.861363      7.237311      4.754084
  H       6.924945      7.392288      2.921280
  H       7.467213      5.038739      2.616932
  H       6.601623      4.613355      4.107639
  H       8.404848      7.698207      4.769173
  H       8.913227      6.409067      3.912462
  H       5.516396      8.784729      5.766677
27
Coordinates from ORCA-job 0_Cu_Cys2 E -3080.269353170365
  S       2.626677      1.373605      0.525837
  O      -1.843977      0.734471      0.501114
  O      -0.398292      1.806196     -0.834335
  N      -0.319876     -1.434441      0.006723
  C       0.309991     -0.164348      0.453653
  C       1.730144     -0.093281     -0.047012
  C      -0.604982      0.923800     -0.059047
  H       0.345624     -0.080979      1.548616
  H       2.253381     -0.964685      0.357733
  H       1.731220     -0.157416     -1.137089
  H      -1.229374     -1.526051      0.446392
  H       0.253895     -2.199813      0.346223
  H      -2.378564      1.448937      0.125421
  Cu      3.794287      3.337794      1.293070
  S       4.861932      5.388635      2.146287
  O       6.270146      8.374649      5.129056
  O       4.779732      6.701335      5.177612
  N       8.038392      6.458510      4.457069
  C       6.755227      6.577897      3.719439
  C       6.372761      5.236827      3.150426
  C       5.785526      7.155473      4.725833
  H       6.824970      7.285158      2.880233
  H       7.193206      4.922969      2.497361
  H       6.271826      4.513509      3.961913
  H       8.349336      7.384190      4.731988
  H       8.731934      6.087573      3.815642
  H       5.618027      8.679806      5.776379
27
Coordinates from ORCA-job 0_Cu_Cys2 E -3080.289546959198
  S       2.754294      1.655231      0.595978
  O      -1.676847      0.836365      0.539871
  O      -0.305491      1.805005     -0.949589
  N      -0.045631     -1.304105      0.234052
  C       0.513175      0.034105      0.570357
  C       1.939166      0.127103      0.089406
  C      -0.442051      1.016523     -0.066461
  H       0.526421      0.240904      1.648704
  H       2.475701     -0.698002      0.568417
  H       1.958258     -0.020794     -0.992403
  H      -0.958047     -1.394138      0.667462
  H       0.563519     -1.995855      0.659388
  H      -2.219516      1.483337      0.063140
  Cu      3.731800      3.581226      1.232307
  S       4.571660      5.606928      1.944810
  O       6.315170      8.156806      5.127064
  O       4.649243      6.653364      5.171537
  N       7.824021      6.062715      4.332030
  C       6.559144      6.392032      3.620981
  C       6.009169      5.152532      2.961463
  C       5.679109      7.005699      4.686617
  H       6.693726      7.145777      2.832080
  H       6.804383      4.780509      2.307554
  H       5.801251      4.404265      3.727730
  H       8.246520      6.922967      4.663905
  H       8.454183      5.654714      3.649066
  H       5.700840      8.465112      5.811074
27
Coordinates from ORCA-job 0_Cu_Cys2 E -3080.298492571762
  S       2.838756      1.858247      0.657810
  O      -1.545870      0.975383      0.547122
  O      -0.190276      1.732507     -1.079391
  N       0.148994     -1.193412      0.424831
  C       0.654586      0.185012      0.654073
  C       2.086491      0.293574      0.183765
  C      -0.310959      1.076755     -0.088120
  H       0.638044      0.494181      1.706769
  H       2.635230     -0.504879      0.694144
  H       2.122258      0.110560     -0.892480
  H      -0.768392     -1.276292      0.850903
  H       0.773624     -1.823630      0.919081
  H      -2.093394      1.548992     -0.014519
  Cu      3.678817      3.728515      1.219735
  S       4.367494      5.661729      1.850620
  O       6.282525      8.007333      5.093964
  O       4.620819      6.499102      5.234224
  N       7.689910      5.833772      4.188575
  C       6.415359      6.252568      3.549066
  C       5.757990      5.071235      2.869906
  C       5.612170      6.861149      4.674188
  H       6.547111      7.033001      2.786729
  H       6.523869      4.638304      2.218736
  H       5.482369      4.336457      3.627423
  H       8.174426      6.659334      4.526228
  H       8.263331      5.414113      3.463330
  H       5.717886      8.296716      5.829829
27
Coordinates from ORCA-job 0_Cu_Cys2 E -3080.302762523040
  S       2.798661      1.824123      0.662440
  O      -1.555618      1.059069      0.483363
  O      -0.184929      1.556316     -1.235347
  N       0.121880     -1.223753      0.460246
  C       0.615783      0.162095      0.627895
  C       2.050414      0.267921      0.154448
  C      -0.333638      1.020236     -0.171132
  H       0.583087      0.518739      1.664455
  H       2.602823     -0.547117      0.634234
  H       2.086776      0.121852     -0.927896
  H      -0.799217     -1.293969      0.883196
  H       0.742380     -1.832428      0.987027
  H      -2.104856      1.595209     -0.115919
  Cu      3.640028      3.687516      1.263738
  S       4.355406      5.582824      1.947103
  O       6.229508      8.086154      5.073710
  O       4.792201      6.381499      5.400391
  N       7.777642      5.933610      4.114767
  C       6.442798      6.280636      3.575743
  C       5.779576      5.061224      2.965755
  C       5.684898      6.851984      4.749105
  H       6.479007      7.060423      2.803083
  H       6.529929      4.588649      2.324429
  H       5.509465      4.364516      3.761277
  H       8.250824      6.786432      4.399449
  H       8.315531      5.524894      3.355874
  H       5.712813      8.351671      5.855105
27
Coordinates from ORCA-job 0_Cu_Cys2 E -3080.304583252629
  S       2.781947      1.802322      0.650547
  O      -1.517287      1.177893      0.493899
  O      -0.187528      1.425009     -1.307038
  N       0.097855     -1.232916      0.484255
  C       0.602805      0.147752      0.622154
  C       2.029207      0.255420      0.115743
  C      -0.338690      1.000913     -0.190516
  H       0.580404      0.520309      1.652143
  H       2.596748     -0.580259      0.537845
  H       2.038076      0.162049     -0.972028
  H      -0.818519     -1.292017      0.920583
  H       0.714517     -1.842117      1.013429
  H      -2.074645      1.691763     -0.114076
  Cu      3.626998      3.647401      1.278256
  S       4.375130      5.494887      1.998970
  O       6.118424      8.124263      5.029713
  O       4.905365      6.278747      5.468406
  N       7.817251      6.009501      4.091073
  C       6.461608      6.289736      3.581382
  C       5.814989      5.034756      3.025249
  C       5.700180      6.841363      4.760467
  H       6.448295      7.057774      2.797217
  H       6.560974      4.524390      2.409433
  H       5.535077      4.374906      3.847773
  H       8.268545      6.887246      4.333967
  H       8.354154      5.596747      3.334706
  H       5.631289      8.372485      5.832988
27
Coordinates from ORCA-job 0_Cu_Cys2 E -3080.304763087804
  S       2.782331      1.801324      0.632507
  O      -1.469270      1.250045      0.578324
  O      -0.227381      1.410679     -1.290006
  N       0.106228     -1.240609      0.457190
  C       0.614576      0.136489      0.615866
  C       2.027794      0.261674      0.076545
  C      -0.343505      1.009560     -0.160403
  H       0.615940      0.483434      1.654603
  H       2.612349     -0.584501      0.451353
  H       2.005866      0.207837     -1.013193
  H      -0.798804     -1.311792      0.914796
  H       0.733536     -1.863101      0.957905
  H      -2.039792      1.778360     -0.003913
  Cu      3.624427      3.633229      1.281777
  S       4.384856      5.468735      2.030142
  O       6.039943      8.167787      4.936569
  O       4.909426      6.298190      5.470689
  N       7.823381      5.993605      4.115856
  C       6.473448      6.271165      3.591884
  C       5.818017      5.009917      3.063375
  C       5.706932      6.850968      4.757662
  H       6.469144      7.021079      2.790365
  H       6.556296      4.469023      2.464507
  H       5.521769      4.375518      3.899605
  H       8.284194      6.873606      4.330734
  H       8.360195      5.551114      3.376346
  H       5.531274      8.446991      5.715455
27
Coordinates from ORCA-job 0_Cu_Cys2 E -3080.305138240439
  S       2.786651      1.801083      0.605024
  O      -1.414840      1.305978      0.673499
  O      -0.266165      1.413557     -1.255653
  N       0.118217     -1.246935      0.423914
  C       0.633787      0.124217      0.612350
  C       2.032312      0.264235      0.040402
  C      -0.338205      1.026786     -0.116468
  H       0.662465      0.437462      1.661006
  H       2.632598     -0.586529      0.378150
  H       1.980358      0.237470     -1.049338
  H      -0.773713     -1.332022      0.904526
  H       0.756901     -1.886226      0.889030
  H      -1.998385      1.851850      0.119324
  Cu      3.622534      3.627644      1.262138
  S       4.387880      5.466740      2.023155
  O       6.016110      8.202205      4.860252
  O       4.908917      6.344895      5.473057
  N       7.796539      5.963332      4.159389
  C       6.467037      6.256243      3.590997
  C       5.796988      4.995894      3.081140
  C       5.679450      6.884831      4.720571
  H       6.502524      6.982915      2.769683
  H       6.530947      4.422446      2.507390
  H       5.473045      4.388008      3.926849
  H       8.277085      6.838256      4.351285
  H       8.339972      5.478438      3.451207
  H       5.512162      8.507553      5.633661
27
Coordinates from ORCA-job 0_Cu_Cys2 E -3080.305362141495
  S       2.802935      1.822535      0.556504
  O      -1.335559      1.353952      0.836369
  O      -0.336813      1.442350     -1.174777
  N       0.147704     -1.240046      0.380310
  C       0.672014      0.121918      0.613201
  C       2.044323      0.288430     -0.010468
  C      -0.326500      1.060349     -0.031665
  H       0.745784      0.383640      1.673418
  H       2.666550     -0.562767      0.283301
  H       1.946859      0.286009     -1.097673
  H      -0.720327     -1.351494      0.898291
  H       0.807483     -1.899079      0.784521
  H      -1.943660      1.919480      0.330097
  Cu      3.636023      3.645101      1.214954
  S       4.402754      5.480260      1.976197
  O       5.988852      8.234672      4.742681
  O       4.841877      6.423292      5.415607
  N       7.739611      5.887979      4.249623
  C       6.459746      6.221451      3.593117
  C       5.764777      4.976582      3.080193
  C       5.636788      6.917468      4.657211
  H       6.576381      6.919515      2.755477
  H       6.496895      4.370845      2.538316
  H       5.398014      4.392310      3.925635
  H       8.254768      6.745341      4.431418
  H       8.294659      5.346450      3.593467
  H       5.461233      8.583780      5.481215
27
Coordinates from ORCA-job 0_Cu_Cys2 E -3080.305623709408
  S       2.825554      1.859889      0.446100
  O      -1.106431      1.450460      1.193315
  O      -0.464193      1.528238     -0.959372
  N       0.194425     -1.228951      0.277128
  C       0.749002      0.102879      0.604437
  C       2.054862      0.333513     -0.127379
  C      -0.293227      1.107591      0.156907
  H       0.926780      0.249741      1.673905
  H       2.719409     -0.513647      0.068473
  H       1.857555      0.380868     -1.200339
  H      -0.613456     -1.404043      0.870063
  H       0.890424     -1.922107      0.537833
  H      -1.739521      2.081223      0.810077
  Cu      3.658033      3.679658      1.113602
  S       4.434504      5.505088      1.882026
  O       5.965447      8.296883      4.473941
  O       4.720461      6.612699      5.287114
  N       7.586153      5.742355      4.441351
  C       6.434624      6.148599      3.607084
  C       5.683407      4.941245      3.087622
  C       5.566941      6.991789      4.519413
  H       6.722027      6.768570      2.750825
  H       6.403840      4.266494      2.616383
  H       5.225434      4.415883      3.928325
  H       8.181008      6.550282      4.606323
  H       8.138196      5.080765      3.903558
  H       5.401910      8.744361      5.127827
27
Coordinates from ORCA-job 0_Cu_Cys2 E -3080.305917932085
  S       2.843682      1.872563      0.361829
  O      -0.909452      1.531496      1.415017
  O      -0.558731      1.549281     -0.805328
  N       0.196856     -1.204527      0.231437
  C       0.794255      0.097147      0.602280
  C       2.047225      0.357500     -0.207180
  C      -0.249764      1.149910      0.289565
  H       1.048630      0.172450      1.663250
  H       2.728706     -0.489715     -0.081687
  H       1.777701      0.436912     -1.262440
  H      -0.563666     -1.414053      0.874132
  H       0.901627     -1.919705      0.390912
  H      -1.556496      2.190971      1.110716
  Cu      3.693298      3.690817      1.030402
  S       4.501207      5.505800      1.804220
  O       5.901973      8.314743      4.303533
  O       4.642388      6.678311      5.191750
  N       7.485157      5.676574      4.563791
  C       6.425990      6.107304      3.625972
  C       5.662970      4.918246      3.083587
  C       5.521261      7.011342      4.438636
  H       6.810863      6.685375      2.779419
  H       6.384163      4.211949      2.662031
  H       5.141675      4.423815      3.906396
  H       8.118168      6.454147      4.733326
  H       8.031887      4.956578      4.099946
  H       5.301597      8.805094      4.891028
27
Coordinates from ORCA-job 0_Cu_Cys2 E -3080.306184567677
  S       2.858530      1.868127      0.327790
  O      -0.766922      1.637179      1.499977
  O      -0.581993      1.556467     -0.739825
  N       0.187676     -1.188598      0.230828
  C       0.809881      0.096668      0.612305
  C       2.043769      0.358128     -0.228422
  C      -0.214701      1.180462      0.346069
  H       1.093979      0.147276      1.667192
  H       2.727472     -0.490360     -0.123256
  H       1.747160      0.441709     -1.275853
  H      -0.554012     -1.407615      0.891958
  H       0.889778     -1.914604      0.349758
  H      -1.390698      2.329624      1.221399
  Cu      3.710204      3.691103      0.988098
  S       4.536349      5.495213      1.759716
  O       5.797930      8.301339      4.236911
  O       4.610595      6.636580      5.173586
  N       7.450424      5.650541      4.594181
  C       6.417607      6.090019      3.633223
  C       5.665832      4.903801      3.066431
  C       5.482905      6.986080      4.419560
  H       6.826111      6.671276      2.799988
  H       6.396921      4.200207      2.657113
  H       5.123052      4.407474      3.873592
  H       8.092724      6.419089      4.769779
  H       7.995311      4.918832      4.146156
  H       5.167286      8.784308      4.798285
27
Coordinates from ORCA-job 0_Cu_Cys2 E -3080.306513672263
  S       2.892476      1.870214      0.227083
  O      -0.351204      1.839668      1.719956
  O      -0.653516      1.605023     -0.497511
  N       0.169776     -1.140073      0.216057
  C       0.860510      0.093761      0.632035
  C       2.028685      0.376955     -0.298286
  C      -0.110461      1.251761      0.522191
  H       1.235821      0.062028      1.659006
  H       2.718939     -0.472571     -0.266689
  H       1.647934      0.482772     -1.315948
  H      -0.513765     -1.398620      0.923491
  H       0.859057     -1.887961      0.208502
  H      -0.912115      2.608014      1.516652
  Cu      3.735148      3.702250      0.886784
  S       4.592609      5.481502      1.674344
  O       5.604022      8.266443      4.016761
  O       4.538595      6.622740      5.123977
  N       7.324637      5.567077      4.688284
  C       6.381813      6.037997      3.656437
  C       5.633741      4.868702      3.043694
  C       5.396252      6.958765      4.345783
  H       6.870151      6.598082      2.852207
  H       6.371840      4.152389      2.669451
  H       5.034952      4.386433      3.818048
  H       8.007656      6.295989      4.877897
  H       7.843778      4.786173      4.295733
  H       4.915840      8.754811      4.500602
27
Coordinates from ORCA-job 0_Cu_Cys2 E -3080.306867248994
  S       2.916579      1.857676      0.221067
  O      -0.372355      1.852055      1.700607
  O      -0.629368      1.620463     -0.523952
  N       0.172738     -1.139668      0.228155
  C       0.850527      0.098588      0.639486
  C       2.032008      0.370584     -0.284406
  C      -0.114441      1.258262      0.507843
  H       1.216807      0.080637      1.671026
  H       2.715382     -0.483634     -0.234943
  H       1.659249      0.461009     -1.306751
  H      -0.522157     -1.394361      0.925122
  H       0.865304     -1.883993      0.233200
  H      -0.904487      2.636414      1.481570
  Cu      3.733248      3.700702      0.888854
  S       4.578625      5.482852      1.684322
  O       5.571981      8.259315      4.034243
  O       4.547542      6.593346      5.147154
  N       7.346781      5.561870      4.666321
  C       6.385377      6.043187      3.660207
  C       5.636916      4.873385      3.041923
  C       5.394726      6.946108      4.364106
  H       6.856078      6.617486      2.854598
  H       6.377918      4.168287      2.652268
  H       5.050358      4.379392      3.817643
  H       8.027442      6.291439      4.860071
  H       7.862637      4.789656      4.253565
  H       4.867753      8.729267      4.513240
27
Coordinates from ORCA-job 0_Cu_Cys2 E -3080.310118792297
  S       3.111718      1.782233      0.092170
  O      -0.232507      2.001349      1.732850
  O      -0.526038      1.753414     -0.489468
  N       0.197829     -1.070748      0.322866
  C       0.866169      0.160083      0.700058
  C       2.055856      0.372033     -0.265391
  C      -0.046596      1.354240      0.549749
  H       1.258718      0.175335      1.726451
  H       2.690032     -0.517562     -0.191252
  H       1.649554      0.413666     -1.279352
  H      -0.511406     -1.315964      1.005098
  H       0.889841     -1.812699      0.316308
  H      -0.618902      2.860197      1.486907
  Cu      3.745057      3.675561      0.820672
  S       4.511368      5.463990      1.674577
  O       5.343521      8.173895      4.006934
  O       4.509019      6.452116      5.190185
  N       7.337967      5.477755      4.606945
  C       6.354236      6.019785      3.677420
  C       5.607949      4.859642      3.003262
  C       5.316542      6.859140      4.386555
  H       6.790859      6.644977      2.886902
  H       6.363834      4.201578      2.562934
  H       5.052827      4.315454      3.766421
  H       8.022505      6.187397      4.846583
  H       7.830766      4.726946      4.134969
  H       4.552452      8.556511      4.425187
27
Coordinates from ORCA-job 0_Cu_Cys2 E -3080.315050802907
  S       3.273097      1.686932     -0.010954
  O      -0.033713      2.146465      1.780572
  O      -0.414739      1.891257     -0.428918
  N       0.191291     -0.982538      0.396101
  C       0.901823      0.221618      0.747812
  C       2.083422      0.364974     -0.258610
  C       0.056885      1.463443      0.604194
  H       1.326722      0.237757      1.763208
  H       2.666678     -0.558602     -0.181007
  H       1.642429      0.394929     -1.259121
  H      -0.521726     -1.203104      1.080940
  H       0.856587     -1.746557      0.365962
  H      -0.316483      3.042121      1.524545
  Cu      3.748930      3.608722      0.770122
  S       4.441504      5.409702      1.663482
  O       5.140517      8.078345      3.973944
  O       4.459767      6.327931      5.211320
  N       7.308791      5.437603      4.559913
  C       6.303299      5.993262      3.674357
  C       5.577129      4.827752      2.968864
  C       5.228299      6.776366      4.389139
  H       6.708309      6.653810      2.893842
  H       6.350480      4.212980      2.497306
  H       5.054850      4.244375      3.725502
  H       7.985262      6.144988      4.824013
  H       7.799831      4.706592      4.057933
  H       4.303930      8.389202      4.362079
27
Coordinates from ORCA-job 0_Cu_Cys2 E -3080.320594796920
  S       3.400281      1.595289     -0.098671
  O       0.195472      2.270484      1.839146
  O      -0.301007      2.026933     -0.349282
  N       0.172102     -0.882334      0.460221
  C       0.953982      0.281309      0.787164
  C       2.110433      0.354921     -0.263022
  C       0.183124      1.572642      0.667147
  H       1.415357      0.277434      1.787191
  H       2.644543     -0.599034     -0.197855
  H       1.632713      0.398637     -1.246425
  H      -0.533823     -1.067526      1.162019
  H       0.793255     -1.680376      0.400614
  H      -0.015535      3.186152      1.584597
  Cu      3.754534      3.525659      0.724807
  S       4.378642      5.340781      1.641573
  O       4.966859      7.983948      3.938997
  O       4.401459      6.221366      5.216420
  N       7.260351      5.415559      4.525904
  C       6.238918      5.962705      3.657574
  C       5.542637      4.785471      2.933052
  C       5.135465      6.698363      4.377960
  H       6.620210      6.647110      2.884973
  H       6.333817      4.206464      2.446193
  H       5.047279      4.173134      3.684913
  H       7.922248      6.130646      4.804204
  H       7.762347      4.700397      4.012784
  H       4.107507      8.244190      4.314339
27
Coordinates from ORCA-job 0_Cu_Cys2 E -3080.327885314167
  S       3.488291      1.511866     -0.190286
  O       0.446730      2.394242      1.864001
  O      -0.187946      2.139668     -0.282483
  N       0.145051     -0.769465      0.557844
  C       1.034077      0.348169      0.815850
  C       2.130225      0.334029     -0.284887
  C       0.333001      1.682413      0.709698
  H       1.544318      0.329360      1.788420
  H       2.617006     -0.646406     -0.242965
  H       1.618237      0.400289     -1.249196
  H      -0.530526     -0.890116      1.304155
  H       0.698801     -1.614778      0.480940
  H       0.262158      3.315958      1.611146
  Cu      3.763394      3.432661      0.675900
  S       4.319443      5.259716      1.613507
  O       4.824308      7.881261      3.940672
  O       4.333464      6.098436      5.217510
  N       7.196105      5.417573      4.498736
  C       6.152291      5.920320      3.620637
  C       5.509705      4.724718      2.888303
  C       5.031965      6.603938      4.368482
  H       6.502818      6.624518      2.853795
  H       6.322746      4.182368      2.396174
  H       5.042113      4.082510      3.635365
  H       7.824518      6.161266      4.781979
  H       7.734223      4.725190      3.990590
  H       3.966654      8.120621      4.332652
27
Coordinates from ORCA-job 0_Cu_Cys2 E -3080.332470790614
  S       3.544607      1.449312     -0.256562
  O       0.651809      2.482462      1.878238
  O      -0.093479      2.229228     -0.231055
  N       0.134409     -0.670488      0.637429
  C       1.098818      0.401486      0.836529
  C       2.139367      0.321168     -0.300260
  C       0.455536      1.766480      0.740762
  H       1.646934      0.367585      1.786183
  H       2.587291     -0.678375     -0.276575
  H       1.601759      0.406387     -1.248661
  H      -0.509648     -0.741563      1.417548
  H       0.634913     -1.547554      0.550893
  H       0.491800      3.409324      1.627986
  Cu      3.765426      3.359097      0.642486
  S       4.269689      5.193189      1.594844
  O       4.710416      7.800888      3.938053
  O       4.281229      6.003967      5.215856
  N       7.142461      5.414942      4.474960
  C       6.082426      5.882763      3.592265
  C       5.479674      4.674597      2.857160
  C       4.951294      6.529762      4.358607
  H       6.409050      6.599690      2.828373
  H       6.307760      4.159738      2.360770
  H       5.034262      4.011610      3.600378
  H       7.745302      6.179615      4.758342
  H       7.705412      4.740758      3.969032
  H       3.854654      8.024255      4.342959
27
Coordinates from ORCA-job 0_Cu_Cys2 E -3080.338050296858
  S       3.628276      1.345119     -0.355520
  O       0.965115      2.593790      1.908331
  O       0.063034      2.378243     -0.144951
  N       0.126546     -0.506498      0.750504
  C       1.194365      0.481136      0.867762
  C       2.149455      0.307088     -0.318300
  C       0.647756      1.891009      0.792822
  H       1.791990      0.412035      1.784079
  H       2.529106     -0.720919     -0.322133
  H       1.574166      0.431579     -1.239840
  H      -0.465081     -0.509886      1.574312
  H       0.542159     -1.425673      0.650899
  H       0.848717      3.530814      1.671201
  Cu      3.771243      3.235857      0.591582
  S       4.194479      5.082014      1.561189
  O       4.536172      7.682334      3.928335
  O       4.198035      5.863690      5.204126
  N       7.056687      5.409722      4.438386
  C       5.976708      5.826603      3.549714
  C       5.433052      4.599361      2.809884
  C       4.828281      6.419398      4.336868
  H       6.269925      6.561817      2.790873
  H       6.282903      4.125472      2.309538
  H       5.021570      3.908634      3.548005
  H       7.620553      6.203296      4.722881
  H       7.655111      4.764640      3.934848
  H       3.682849      7.879649      4.351146
27
Coordinates from ORCA-job 0_Cu_Cys2 E -3080.342899018845
  S       3.738918      1.186968     -0.501960
  O       1.398635      2.691848      1.990666
  O       0.313577      2.611908      0.012452
  N       0.136193     -0.251959      0.888791
  C       1.329822      0.592828      0.911302
  C       2.158371      0.306593     -0.336677
  C       0.932356      2.056360      0.888842
  H       1.977784      0.445602      1.782725
  H       2.421097     -0.756820     -0.378962
  H       1.533157      0.510393     -1.210756
  H      -0.373468     -0.183078      1.763334
  H       0.423860     -1.216713      0.767046
  H       1.351610      3.647298      1.803164
  Cu      3.793898      3.048756      0.508774
  S       4.102140      4.915545      1.490806
  O       4.299202      7.524138      3.889697
  O       4.062416      5.682247      5.157897
  N       6.916526      5.394189      4.394523
  C       5.826028      5.746043      3.485829
  C       5.365467      4.494854      2.737342
  C       4.650119      6.271288      4.283195
  H       6.086824      6.502321      2.736805
  H       6.245238      4.071971      2.242989
  H       4.993097      3.774539      3.468694
  H       7.425979      6.221872      4.685151
  H       7.563905      4.789448      3.900752
  H       3.450418      7.691886      4.334117
27
Coordinates from ORCA-job 0_Cu_Cys2 E -3080.345151715379
  S       3.753178      1.140466     -0.688570
  O       1.627328      2.630653      2.159824
  O       0.457637      2.760025      0.228873
  N       0.177109     -0.097736      0.980069
  C       1.447620      0.645119      0.912447
  C       2.135991      0.333769     -0.395658
  C       1.119088      2.124866      1.012717
  H       2.138760      0.408897      1.726862
  H       2.310872     -0.745366     -0.477622
  H       1.455070      0.606055     -1.207269
  H      -0.224333     -0.020289      1.910181
  H       0.373016     -1.080900      0.819153
  H       1.579341      3.605473      2.108615
  Cu      3.862432      2.977146      0.375217
  S       4.136056      4.860125      1.363435
  O       4.242712      7.491337      3.790891
  O       3.892344      5.645098      5.026873
  N       6.746537      5.351378      4.445342
  C       5.731993      5.680074      3.433042
  C       5.336103      4.429867      2.666581
  C       4.523583      6.219342      4.175513
  H       6.052331      6.433555      2.707572
  H       6.244921      4.004754      2.230364
  H       4.926290      3.704787      3.375107
  H       7.219963      6.193110      4.759019
  H       7.446877      4.755996      4.014456
  H       3.410352      7.712722      4.243505
27
Coordinates from ORCA-job 0_Cu_Cys2 E -3080.343372323639
  S       3.754004      1.198801     -0.994652
  O       1.974372      2.589545      2.432054
  O       0.694781      2.968890      0.596588
  N       0.353451      0.028589      1.130740
  C       1.619772      0.748759      1.018105
  C       2.163686      0.494797     -0.401821
  C       1.365998      2.220268      1.271701
  H       2.379297      0.428978      1.744912
  H       2.283153     -0.588072     -0.518621
  H       1.367040      0.825401     -1.077031
  H       0.026760      0.037463      2.091104
  H       0.512352     -0.939054      0.870468
  H       2.015060      3.565996      2.455134
  Cu      3.830360      3.010047      0.119603
  S       4.127218      4.877775      1.142327
  O       4.224352      7.501058      3.589541
  O       3.564755      5.675457      4.730052
  N       6.462285      5.082327      4.484587
  C       5.605019      5.566919      3.405181
  C       5.166390      4.368459      2.550969
  C       4.360152      6.201929      3.986414
  H       6.081044      6.304569      2.746524
  H       6.075293      3.880658      2.185790
  H       4.641038      3.670383      3.206320
  H       6.982785      5.847777      4.898936
  H       7.135289      4.432417      4.092223
  H       3.357466      7.770190      3.939392
27
Coordinates from ORCA-job 0_Cu_Cys2 E -3080.347262006494
  S       3.599202      1.308533     -1.040464
  O       2.105366      2.661154      2.287100
  O       0.583829      2.892033      0.632264
  N       0.421097     -0.010840      1.274987
  C       1.657425      0.742638      0.995399
  C       2.064532      0.500737     -0.445090
  C       1.371960      2.213138      1.242823
  H       2.494162      0.462453      1.644042
  H       2.210368     -0.576397     -0.583314
  H       1.229935      0.806424     -1.082976
  H       0.220072      0.014659      2.271147
  H       0.584474     -0.984603      1.035866
  H       2.113597      3.637313      2.250327
  Cu      3.837339      3.104548      0.068543
  S       4.240431      4.940133      1.097456
  O       4.276060      7.503512      3.577099
  O       3.494201      5.690673      4.650719
  N       6.364964      5.040823      4.572752
  C       5.587581      5.525240      3.423047
  C       5.177982      4.350947      2.546342
  C       4.337280      6.199991      3.954896
  H       6.121733      6.248311      2.798883
  H       6.090029      3.834995      2.230987
  H       4.588768      3.660368      3.155325
  H       6.878123      5.807184      4.998007
  H       7.054633      4.378662      4.231374
  H       3.418025      7.817693      3.909000
27
Coordinates from ORCA-job 0_Cu_Cys2 E -3080.347238346907
  S       3.634456      1.238958     -0.929701
  O       1.784095      2.762462      2.237483
  O       0.455223      2.832234      0.413157
  N       0.384212     -0.040945      1.276377
  C       1.586468      0.761190      0.992350
  C       2.055286      0.468473     -0.422297
  C       1.203370      2.223429      1.139210
  H       2.414195      0.564809      1.683082
  H       2.189958     -0.615565     -0.508087
  H       1.261690      0.768140     -1.112097
  H       0.145023      0.043810      2.260612
  H       0.616080     -1.017538      1.119765
  H       1.711511      3.735065      2.154381
  Cu      3.950758      3.058094      0.103692
  S       4.397736      4.914139      1.068410
  O       4.229120      7.428998      3.743237
  O       3.503217      5.461901      4.550987
  N       6.473180      5.116440      4.568221
  C       5.659496      5.555494      3.427703
  C       5.366497      4.372343      2.515651
  C       4.347572      6.093903      3.963629
  H       6.125911      6.346544      2.830001
  H       6.322214      3.941801      2.200876
  H       4.830152      3.617833      3.095997
  H       6.886185      5.920478      5.031490
  H       7.241736      4.558696      4.209290
  H       3.347830      7.659138      4.083116
27
Coordinates from ORCA-job 0_Cu_Cys2 E -3080.349065162242
  S       3.508252      1.308041     -1.128903
  O       2.188028      2.798776      2.313264
  O       0.631095      2.983329      0.686112
  N       0.554061      0.086980      1.486024
  C       1.736642      0.850951      1.047385
  C       1.983719      0.581911     -0.426323
  C       1.442697      2.321732      1.287825
  H       2.645283      0.600795      1.606035
  H       2.058186     -0.503566     -0.557193
  H       1.113281      0.935452     -0.984535
  H       0.465912      0.156926      2.496635
  H       0.726502     -0.893960      1.283506
  H       2.153371      3.776054      2.267162
  Cu      3.953613      3.089492     -0.074967
  S       4.518264      4.905536      0.902002
  O       4.147898      7.362659      3.635398
  O       3.250074      5.395864      4.248019
  N       6.193125      4.946790      4.613724
  C       5.529398      5.440144      3.399723
  C       5.301201      4.290922      2.430075
  C       4.184901      6.014493      3.799778
  H       6.088107      6.227908      2.881838
  H       6.270906      3.833179      2.209508
  H       4.677395      3.543215      2.925755
  H       6.578241      5.726602      5.139079
  H       6.980542      4.372987      4.327100
  H       3.242477      7.617112      3.882514
27
Coordinates from ORCA-job 0_Cu_Cys2 E -3080.348243089452
  S       3.342976      1.387412     -1.294561
  O       2.603222      2.754069      2.412158
  O       0.900584      3.162280      0.980548
  N       0.713615      0.230495      1.670171
  C       1.871830      0.938968      1.086250
  C       1.881096      0.726026     -0.416443
  C       1.723831      2.408524      1.442214
  H       2.830546      0.599197      1.492426
  H       1.854708     -0.355013     -0.594479
  H       0.967017      1.164241     -0.822864
  H       0.782588      0.265624      2.684902
  H       0.797624     -0.751440      1.418836
  H       2.619892      3.729913      2.461672
  Cu      3.959793      3.106013     -0.210206
  S       4.665136      4.864371      0.776417
  O       4.031162      7.273326      3.521562
  O       3.020037      5.295040      3.855702
  N       5.900070      4.821762      4.649190
  C       5.401564      5.333337      3.362884
  C       5.284110      4.203584      2.357820
  C       4.022113      5.916246      3.596441
  H       6.028002      6.123638      2.933866
  H       6.271924      3.747273      2.230527
  H       4.608442      3.449121      2.766698
  H       6.222074      5.595379      5.224853
  H       6.716060      4.247373      4.457483
  H       3.103156      7.533563      3.652472
27
Coordinates from ORCA-job 0_Cu_Cys2 E -3080.350644494977
  S       3.399685      1.298341     -1.246118
  O       2.460208      2.588642      2.494499
  O       0.967010      3.164711      0.896301
  N       0.556558      0.228132      1.542021
  C       1.782122      0.882139      1.024507
  C       1.859197      0.687260     -0.475343
  C       1.693472      2.347963      1.410073
  H       2.696485      0.482486      1.473348
  H       1.779807     -0.388495     -0.668112
  H       0.988348      1.175834     -0.915681
  H       0.574684      0.255989      2.560330
  H       0.609498     -0.757009      1.291714
  H       2.478485      3.547497      2.649165
  Cu      3.999326      3.017787     -0.112110
  S       4.617204      4.809711      0.877471
  O       3.978926      7.261947      3.552637
  O       3.120577      5.223235      3.935053
  N       6.067398      5.019732      4.653470
  C       5.475724      5.418674      3.362601
  C       5.396805      4.241193      2.419969
  C       4.067242      5.909054      3.636424
  H       6.018728      6.232099      2.869304
  H       6.409985      3.864145      2.236243
  H       4.814788      3.451373      2.895299
  H       6.353824      5.848606      5.169172
  H       6.917744      4.499380      4.453889
  H       3.039339      7.459899      3.710412
27
Coordinates from ORCA-job 0_Cu_Cys2 E -3080.351313696328
  S       3.433341      1.301750     -1.207079
  O       2.328123      2.758378      2.474263
  O       0.838703      3.153394      0.819808
  N       0.600380      0.231353      1.584776
  C       1.791376      0.933538      1.067988
  C       1.894943      0.702083     -0.431196
  C       1.599554      2.405244      1.389719
  H       2.723139      0.603553      1.540561
  H       1.844892     -0.380938     -0.592475
  H       1.019091      1.156420     -0.901149
  H       0.593968      0.295933      2.600038
  H       0.709930     -0.755725      1.366517
  H       2.267508      3.730565      2.570674
  Cu      4.049933      3.031369     -0.145966
  S       4.715777      4.814489      0.805627
  O       3.928788      7.177731      3.594937
  O       3.128483      5.100529      3.896656
  N       6.070282      4.957677      4.634046
  C       5.483556      5.387244      3.356364
  C       5.449520      4.233242      2.370242
  C       4.057878      5.825364      3.625814
  H       6.011205      6.231050      2.896734
  H       6.472672      3.877940      2.209162
  H       4.867541      3.421138      2.808823
  H       6.326392      5.772220      5.185421
  H       6.934824      4.465918      4.426090
  H       2.981372      7.338865      3.750142
27
Coordinates from ORCA-job 0_Cu_Cys2 E -3080.351745903463
  S       3.380458      1.392203     -1.260830
  O       2.308658      2.642865      2.560314
  O       0.780325      3.085646      0.953217
  N       0.669231      0.120456      1.567103
  C       1.817353      0.890040      1.052504
  C       1.880877      0.734826     -0.461232
  C       1.578040      2.331449      1.463511
  H       2.774766      0.569089      1.478834
  H       1.847384     -0.343358     -0.658035
  H       0.980077      1.184374     -0.888698
  H       0.688318      0.138071      2.583676
  H       0.806527     -0.850204      1.297643
  H       2.194403      3.602830      2.737284
  Cu      4.030075      3.094798     -0.188821
  S       4.735927      4.845878      0.792642
  O       4.121011      7.336922      3.532891
  O       3.093136      5.361712      3.819665
  N       5.984017      4.931942      4.662098
  C       5.486132      5.392679      3.358906
  C       5.375072      4.227409      2.385330
  C       4.104773      5.979689      3.572422
  H       6.110414      6.171409      2.905376
  H       6.368045      3.785365      2.257534
  H       4.715010      3.472522      2.818631
  H       6.304982      5.726416      5.208111
  H       6.797800      4.347977      4.492149
  H       3.190360      7.597321      3.654313
27
Coordinates from ORCA-job 0_Cu_Cys2 E -3080.352728786635
  S       3.365575      1.364112     -1.278077
  O       2.448621      2.584654      2.592364
  O       0.940342      3.186880      1.017672
  N       0.644995      0.216239      1.593924
  C       1.824801      0.923647      1.049537
  C       1.844647      0.774273     -0.461278
  C       1.690081      2.367874      1.496480
  H       2.770026      0.539954      1.447331
  H       1.738953     -0.297370     -0.668197
  H       0.963495      1.280512     -0.862617
  H       0.694899      0.225355      2.610894
  H       0.718624     -0.759940      1.316997
  H       2.405103      3.532859      2.825913
  Cu      4.055865      3.057176     -0.189328
  S       4.774863      4.812346      0.789528
  O       3.984179      7.244918      3.484824
  O       3.056443      5.219452      3.739487
  N       5.947635      4.956734      4.667070
  C       5.455841      5.376482      3.343751
  C       5.426065      4.207692      2.379275
  C       4.039813      5.890128      3.522936
  H       6.045366      6.184874      2.898007
  H       6.442171      3.813569      2.265875
  H       4.795376      3.422753      2.799156
  H       6.216187      5.774106      5.208918
  H       6.794281      4.413272      4.523609
  H       3.038925      7.457771      3.582488
27
Coordinates from ORCA-job 0_Cu_Cys2 E -3080.353018178767
  S       3.360124      1.355008     -1.277944
  O       2.481559      2.633042      2.586822
  O       0.973622      3.226135      1.011056
  N       0.665120      0.259765      1.634392
  C       1.839864      0.956430      1.066059
  C       1.837367      0.796430     -0.442958
  C       1.716756      2.407157      1.498171
  H       2.790144      0.573345      1.452706
  H       1.712838     -0.272885     -0.651042
  H       0.960374      1.316274     -0.835711
  H       0.726668      0.282241      2.650160
  H       0.729894     -0.719688      1.368538
  H       2.447290      3.584829      2.811921
  Cu      4.074974      3.051859     -0.210375
  S       4.819326      4.799707      0.761903
  O       3.912265      7.176128      3.477757
  O       3.038096      5.125605      3.699613
  N       5.919933      4.932467      4.662469
  C       5.437561      5.352453      3.336163
  C       5.451977      4.193937      2.359797
  C       4.005534      5.824611      3.500406
  H       6.011843      6.180641      2.906621
  H       6.477790      3.821518      2.261614
  H       4.830310      3.393066      2.760122
  H       6.161500      5.750123      5.216056
  H       6.779633      4.408273      4.527607
  H       2.960807      7.361855      3.564614
27
Coordinates from ORCA-job 0_Cu_Cys2 E -3080.353489530886
  S       3.321685      1.382949     -1.300762
  O       2.507822      2.581614      2.629898
  O       1.004756      3.231706      1.072353
  N       0.690434      0.247742      1.649091
  C       1.851244      0.953835      1.064184
  C       1.809155      0.829317     -0.446865
  C       1.741158      2.392843      1.535629
  H       2.810357      0.559142      1.416554
  H       1.666220     -0.234324     -0.671593
  H       0.930100      1.368090     -0.809269
  H       0.776874      0.254546      2.662905
  H       0.748728     -0.727179      1.366421
  H       2.473916      3.527239      2.891643
  Cu      4.087918      3.062141     -0.236918
  S       4.879039      4.789892      0.737141
  O       3.927044      7.192980      3.443624
  O       3.011483      5.160218      3.634217
  N       5.864228      4.928785      4.671349
  C       5.425472      5.347653      3.330067
  C       5.461121      4.185390      2.355832
  C       3.996850      5.841207      3.457233
  H       6.021141      6.168649      2.915649
  H       6.488773      3.812262      2.288455
  H       4.828386      3.384396      2.738926
  H       6.104210      5.745819      5.226120
  H       6.717918      4.389026      4.563416
  H       2.977137      7.394387      3.511240
27
Coordinates from ORCA-job 0_Cu_Cys2 E -3080.353735556836
  S       3.291742      1.404210     -1.313590
  O       2.519826      2.569027      2.643619
  O       1.000937      3.224674      1.104649
  N       0.719348      0.226591      1.665561
  C       1.859072      0.952583      1.066182
  C       1.785820      0.856054     -0.445408
  C       1.743775      2.384748      1.556195
  H       2.830330      0.563654      1.390948
  H       1.628812     -0.200909     -0.690643
  H       0.907542      1.412018     -0.782556
  H       0.823409      0.226619      2.677656
  H       0.782848     -0.744921      1.372839
  H       2.494482      3.517566      2.904951
  Cu      4.097241      3.072519     -0.259349
  S       4.930904      4.779258      0.722305
  O       3.935128      7.200938      3.400998
  O       2.996324      5.185108      3.623439
  N       5.830181      4.922400      4.679892
  C       5.415847      5.341227      3.331574
  C       5.463804      4.176432      2.359148
  C       3.991616      5.850495      3.437932
  H       6.024245      6.156367      2.924141
  H       6.491908      3.800263      2.318886
  H       4.820263      3.376604      2.726218
  H       6.076350      5.737303      5.234929
  H       6.674479      4.365452      4.587435
  H       2.986936      7.414044      3.458588
27
Coordinates from ORCA-job 0_Cu_Cys2 E -3080.353955627952
  S       3.258099      1.430439     -1.333342
  O       2.556889      2.531936      2.704072
  O       1.057791      3.254329      1.175632
  N       0.763794      0.234791      1.695758
  C       1.883621      0.972308      1.074612
  C       1.756131      0.921693     -0.436569
  C       1.787790      2.391433      1.605737
  H       2.864850      0.572676      1.353545
  H       1.553967     -0.120964     -0.707687
  H       0.889270      1.519060     -0.728949
  H       0.896685      0.222975      2.704353
  H       0.821404     -0.732455      1.388210
  H       2.532349      3.471400      3.001978
  Cu      4.119573      3.073827     -0.287798
  S       4.999725      4.752462      0.696742
  O       3.906905      7.176864      3.333429
  O       2.962311      5.163592      3.531680
  N       5.759912      4.907198      4.683402
  C       5.391591      5.320241      3.320079
  C       5.480476      4.154712      2.351498
  C       3.965089      5.827391      3.376293
  H       6.009918      6.136799      2.930622
  H       6.515179      3.793745      2.346302
  H       4.836978      3.345044      2.696391
  H       5.997191      5.722738      5.241057
  H       6.599104      4.338444      4.622142
  H       2.956580      7.387647      3.357352
27
Coordinates from ORCA-job 0_Cu_Cys2 E -3080.354140155331
  S       3.249693      1.438446     -1.332924
  O       2.547013      2.528084      2.726206
  O       1.056708      3.256972      1.192894
  N       0.783308      0.222489      1.701877
  C       1.887476      0.978754      1.077246
  C       1.739648      0.957430     -0.433239
  C       1.785409      2.392379      1.623081
  H       2.876338      0.585418      1.336702
  H       1.505412     -0.071941     -0.727546
  H       0.888502      1.586971     -0.701842
  H       0.922496      0.209076      2.709602
  H       0.852766     -0.742509      1.389966
  H       2.526504      3.469965      3.016730
  Cu      4.134246      3.070529     -0.291821
  S       5.035442      4.735032      0.697006
  O       3.879373      7.153468      3.258325
  O       2.964098      5.139379      3.562041
  N       5.754810      4.911359      4.689612
  C       5.387679      5.315574      3.323877
  C       5.493240      4.147017      2.360763
  C       3.956795      5.808995      3.368452
  H       5.999538      6.135613      2.931788
  H       6.531300      3.794724      2.371989
  H       4.851807      3.332275      2.697649
  H       5.999130      5.728755      5.241144
  H       6.588140      4.333742      4.633320
  H       2.926300      7.352327      3.273640
27
Coordinates from ORCA-job 0_Cu_Cys2 E -3080.354254829266
  S       3.249186      1.441527     -1.332562
  O       2.563927      2.506197      2.744231
  O       1.072666      3.263151      1.226091
  N       0.783827      0.221168      1.699807
  C       1.888045      0.980744      1.078351
  C       1.732342      0.979125     -0.432090
  C       1.795814      2.387954      1.643383
  H       2.876247      0.579992      1.328434
  H       1.475964     -0.041595     -0.737472
  H       0.893183      1.629225     -0.688289
  H       0.925127      0.201228      2.707206
  H       0.853845     -0.741993      1.382291
  H       2.556033      3.447312      3.036448
  Cu      4.135535      3.070679     -0.286669
  S       5.035849      4.736044      0.701072
  O       3.861247      7.141732      3.198124
  O       2.964823      5.130826      3.577104
  N       5.744699      4.909130      4.695078
  C       5.384791      5.317413      3.328707
  C       5.500254      4.151294      2.363557
  C       3.950412      5.802927      3.359545
  H       5.996620      6.140176      2.942722
  H       6.541314      3.807552      2.375350
  H       4.866115      3.331116      2.700454
  H       5.997001      5.723616      5.247119
  H       6.572127      4.323060      4.640043
  H       2.906177      7.330723      3.198505
27
Coordinates from ORCA-job 0_Cu_Cys2 E -3080.349211643508
  S       3.442823      1.315911     -1.116692
  O       1.934677      2.539753      2.718147
  O       0.770694      3.141584      0.880838
  N       0.557415      0.103186      1.517707
  C       1.707727      0.901796      1.041113
  C       1.823277      0.792508     -0.467239
  C       1.428617      2.327502      1.482661
  H       2.659257      0.590726      1.485936
  H       1.696761     -0.264551     -0.726560
  H       1.004817      1.353702     -0.922916
  H       0.521616      0.153616      2.533007
  H       0.740710     -0.869121      1.284906
  H       1.790087      3.486234      2.945548
  Cu      4.219199      3.051380     -0.145811
  S       4.984235      4.825793      0.766063
  O       3.907397      7.139831      3.482268
  O       3.206673      5.043999      3.818187
  N       6.121625      5.073222      4.656695
  C       5.568823      5.446549      3.344183
  C       5.678545      4.292986      2.364357
  C       4.111445      5.802538      3.552400
  H       6.056247      6.320037      2.896516
  H       6.741039      4.044921      2.259119
  H       5.162618      3.422041      2.769105
  H       6.345664      5.908871      5.188667
  H       6.995395      4.580730      4.498460
  H       2.945789      7.244581      3.589874
27
Coordinates from ORCA-job 0_Cu_Cys2 E -3080.350568964452
  S       3.396883      1.299246     -1.226469
  O       2.411340      2.645337      2.696668
  O       1.070794      3.317287      1.008933
  N       0.684213      0.316019      1.681536
  C       1.846143      1.015355      1.092131
  C       1.811068      0.900760     -0.420800
  C       1.734076      2.461040      1.545263
  H       2.805829      0.625535      1.447777
  H       1.573614     -0.138046     -0.675859
  H       1.001738      1.532835     -0.791815
  H       0.747697      0.371455      2.695502
  H       0.764664     -0.669067      1.444364
  H       2.389581      3.602727      2.921454
  Cu      4.163818      3.005377     -0.226733
  S       4.935343      4.749805      0.707710
  O       3.701225      6.984722      3.350207
  O       3.042815      4.879131      3.707309
  N       5.903981      4.934788      4.648001
  C       5.409054      5.327601      3.319746
  C       5.573543      4.194377      2.322383
  C       3.936665      5.658113      3.457820
  H       5.905391      6.215269      2.912287
  H       6.641409      3.955815      2.255974
  H       5.048165      3.311874      2.688131
  H       6.107604      5.761241      5.202252
  H       6.782691      4.442118      4.521254
  H       2.733823      7.069610      3.411512
27
Coordinates from ORCA-job 0_Cu_Cys2 E -3080.352610331332
  S       3.317626      1.314414     -1.311950
  O       2.590307      2.448469      2.677730
  O       1.189825      3.277184      1.105909
  N       0.710637      0.251336      1.659338
  C       1.863099      0.941941      1.044095
  C       1.761454      0.890047     -0.467912
  C       1.834625      2.362569      1.567864
  H       2.825324      0.508747      1.335940
  H       1.493713     -0.134121     -0.750064
  H       0.953195      1.551855     -0.786101
  H       0.825300      0.258523      2.670726
  H       0.747469     -0.724425      1.376387
  H       2.653514      3.385002      2.952009
  Cu      4.070651      2.992228     -0.241266
  S       4.834289      4.723151      0.749636
  O       3.858119      7.194043      3.310680
  O       2.985820      5.188888      3.781024
  N       5.847586      4.976217      4.678309
  C       5.377493      5.361085      3.339919
  C       5.433293      4.176698      2.383196
  C       3.950489      5.855485      3.476090
  H       5.955336      6.178796      2.895923
  H       6.480199      3.856642      2.325058
  H       4.844374      3.347102      2.778320
  H       6.138819      5.800386      5.196338
  H       6.672522      4.394527      4.566107
  H       2.908094      7.393536      3.383236
27
Coordinates from ORCA-job 0_Cu_Cys2 E -3080.352513384900
  S       3.369700      1.349563     -1.242595
  O       2.272267      2.421717      2.759742
  O       0.941808      3.181606      1.099090
  N       0.634135      0.137723      1.561423
  C       1.786350      0.901569      1.036975
  C       1.783485      0.867895     -0.479270
  C       1.625200      2.308114      1.580903
  H       2.748361      0.515553      1.390686
  H       1.581313     -0.169095     -0.769744
  H       0.962507      1.489318     -0.843974
  H       0.678455      0.134579      2.578110
  H       0.745798     -0.829576      1.268884
  H       2.214531      3.352047      3.060174
  Cu      4.149081      3.040107     -0.201975
  S       4.932082      4.782878      0.758717
  O       3.905753      7.205015      3.327173
  O       3.100098      5.162201      3.772530
  N       5.969910      5.042999      4.677467
  C       5.482669      5.422829      3.343005
  C       5.559646      4.246462      2.383661
  C       4.041669      5.866693      3.484714
  H       6.034874      6.258337      2.898713
  H       6.612022      3.947643      2.314689
  H       4.992448      3.405452      2.785080
  H       6.239253      5.872538      5.198541
  H       6.811168      4.486782      4.556783
  H       2.948588      7.369376      3.397037
27
Coordinates from ORCA-job 0_Cu_Cys2 E -3080.354170937074
  S       3.359350      1.361798     -1.278918
  O       2.429636      2.509228      2.741018
  O       1.032555      3.234271      1.125416
  N       0.712332      0.205157      1.638747
  C       1.855276      0.947260      1.062956
  C       1.795342      0.904198     -0.453103
  C       1.729819      2.367006      1.594196
  H       2.824524      0.550268      1.384192
  H       1.572806     -0.129502     -0.741227
  H       0.966391      1.533453     -0.783965
  H       0.794753      0.212154      2.652727
  H       0.800290     -0.766475      1.353400
  H       2.387027      3.451974      3.015465
  Cu      4.120329      3.047864     -0.237038
  S       4.891501      4.775789      0.734358
  O       3.867279      7.164137      3.299845
  O       3.030912      5.127990      3.711034
  N       5.877283      4.954465      4.669850
  C       5.423288      5.364014      3.332267
  C       5.483823      4.202576      2.359544
  C       3.985652      5.824779      3.448676
  H       6.001437      6.193311      2.909221
  H       6.525697      3.867732      2.296953
  H       4.881658      3.379976      2.746748
  H       6.155288      5.769882      5.207715
  H       6.708000      4.381888      4.555782
  H       2.910924      7.335131      3.350682
27
Coordinates from ORCA-job 0_Cu_Cys2 E -3080.354213181210
  S       3.310784      1.356256     -1.304452
  O       2.585689      2.517883      2.703276
  O       1.133710      3.284209      1.150822
  N       0.749798      0.261635      1.698172
  C       1.883677      0.973113      1.070019
  C       1.763237      0.922499     -0.441578
  C       1.825281      2.397264      1.594253
  H       2.856409      0.555676      1.351568
  H       1.506418     -0.104486     -0.725358
  H       0.942859      1.573749     -0.750309
  H       0.876165      0.271781      2.707843
  H       0.801827     -0.713459      1.414998
  H       2.597430      3.461077      2.976382
  Cu      4.104370      3.038835     -0.266095
  S       4.912073      4.757690      0.715195
  O       3.821851      7.137774      3.292576
  O       2.972058      5.098926      3.644604
  N       5.800284      4.916702      4.676198
  C       5.378206      5.335183      3.331584
  C       5.468286      4.177858      2.351128
  C       3.936331      5.797020      3.419469
  H       5.965408      6.169079      2.931339
  H       6.511863      3.845256      2.310775
  H       4.857244      3.350862      2.717301
  H       6.061959      5.729017      5.227273
  H       6.635643      4.347405      4.578723
  H       2.864311      7.311518      3.320831
27
Coordinates from ORCA-job 0_Cu_Cys2 E -3080.354201823848
  S       3.277509      1.438804     -1.326197
  O       2.579899      2.469839      2.769729
  O       1.080251      3.246335      1.271237
  N       0.787010      0.210651      1.693987
  C       1.900811      0.966349      1.080745
  C       1.755352      0.971270     -0.429903
  C       1.811007      2.367518      1.663323
  H       2.884067      0.555941      1.335031
  H       1.504968     -0.049831     -0.739304
  H       0.918191      1.619832     -0.696580
  H       0.924763      0.185832      2.701809
  H       0.854667     -0.751988      1.374099
  H       2.548090      3.401262      3.086343
  Cu      4.119868      3.090380     -0.285951
  S       4.977901      4.776246      0.694299
  O       3.880684      7.177258      3.222423
  O       2.962411      5.161992      3.541108
  N       5.738706      4.896557      4.680815
  C       5.383060      5.332495      3.322255
  C       5.465924      4.175456      2.343821
  C       3.953123      5.833596      3.353661
  H       6.010683      6.147997      2.945956
  H       6.496989      3.804107      2.334689
  H       4.815271      3.372292      2.691666
  H       6.008659      5.697842      5.243768
  H       6.555834      4.297444      4.612558
  H       2.927475      7.374848      3.211153
27
Coordinates from ORCA-job 0_Cu_Cys2 E -3080.354237474370
  S       3.316326      1.389436     -1.289658
  O       2.471665      2.493372      2.744746
  O       1.024191      3.225259      1.174305
  N       0.722372      0.194759      1.653708
  C       1.855349      0.945674      1.071199
  C       1.763855      0.932213     -0.442310
  C       1.735725      2.356303      1.621295
  H       2.830572      0.544778      1.367485
  H       1.524628     -0.091556     -0.751198
  H       0.936540      1.578243     -0.743527
  H       0.821980      0.186551      2.666379
  H       0.806180     -0.772579      1.352247
  H       2.431999      3.436395      3.027648
  Cu      4.141942      3.061191     -0.257772
  S       4.980841      4.772454      0.710107
  O       3.849320      7.152268      3.268735
  O       3.021564      5.111570      3.660200
  N       5.837387      4.954466      4.678149
  C       5.421567      5.364593      3.328698
  C       5.519385      4.202273      2.355905
  C       3.976719      5.813831      3.409307
  H       6.005362      6.200479      2.927676
  H       6.562563      3.867508      2.327062
  H       4.906056      3.378916      2.721479
  H       6.095487      5.770106      5.226002
  H       6.673412      4.384940      4.588303
  H       2.890184      7.316880      3.300369
27
Coordinates from ORCA-job 0_Cu_Cys2 E -3080.354464248453
  S       3.299938      1.389541     -1.301540
  O       2.556645      2.498792      2.733008
  O       1.087471      3.258375      1.194980
  N       0.749310      0.230692      1.686847
  C       1.878828      0.964941      1.076791
  C       1.756207      0.947790     -0.434370
  C       1.797568      2.378800      1.623897
  H       2.855077      0.552152      1.352086
  H       1.495929     -0.070910     -0.743044
  H       0.935391      1.607806     -0.722284
  H       0.871302      0.224255      2.697136
  H       0.813716     -0.738631      1.386850
  H       2.543026      3.440311      3.018985
  Cu      4.127289      3.058176     -0.268443
  S       4.969278      4.764184      0.703352
  O       3.825304      7.135786      3.245152
  O       2.983933      5.100656      3.630772
  N       5.794720      4.924095      4.679388
  C       5.391127      5.342464      3.328865
  C       5.495957      4.184519      2.349863
  C       3.947282      5.799106      3.401259
  H       5.980796      6.178601      2.937432
  H       6.539643      3.850875      2.326745
  H       4.880040      3.358158      2.706253
  H       6.052517      5.735889      5.233060
  H       6.628596      4.350895      4.593234
  H       2.866280      7.303005      3.260267
27
Coordinates from ORCA-job 0_Cu_Cys2 E -3080.354473528347
  S       3.293174      1.406833     -1.303264
  O       2.575708      2.484431      2.749462
  O       1.099001      3.262340      1.227765
  N       0.757541      0.228106      1.691285
  C       1.884560      0.967277      1.082341
  C       1.754116      0.961814     -0.428860
  C       1.806794      2.375749      1.645392
  H       2.861708      0.551149      1.349406
  H       1.491338     -0.054649     -0.742582
  H       0.932442      1.624315     -0.708659
  H       0.884063      0.213149      2.700886
  H       0.820833     -0.738575      1.382772
  H       2.563395      3.422803      3.046457
  Cu      4.131646      3.069338     -0.273871
  S       4.984734      4.768458      0.692799
  O       3.832434      7.140839      3.228113
  O       2.973101      5.112275      3.605984
  N       5.766539      4.911728      4.677181
  C       5.383946      5.337442      3.322479
  C       5.494866      4.182363      2.341746
  C       3.942034      5.801945      3.373794
  H       5.983488      6.171441      2.941569
  H       6.537728      3.845579      2.328611
  H       4.873190      3.356968      2.690663
  H       6.023105      5.719755      5.236775
  H       6.597046      4.332399      4.600236
  H       2.874644      7.315055      3.238059
27
Coordinates from ORCA-job 0_Cu_Cys2 E -3080.354510254676
  S       3.295756      1.407062     -1.302945
  O       2.568495      2.478352      2.753885
  O       1.084143      3.254484      1.239114
  N       0.751892      0.222325      1.683271
  C       1.880516      0.964579      1.081196
  C       1.753822      0.966028     -0.430509
  C       1.799580      2.370778      1.650183
  H       2.856763      0.547423      1.349922
  H       1.488043     -0.048029     -0.749237
  H       0.934915      1.632617     -0.708842
  H       0.874544      0.203832      2.693322
  H       0.817265     -0.743270      1.371796
  H       2.550318      3.415199      3.057229
  Cu      4.132607      3.069480     -0.270224
  S       4.984764      4.770090      0.698286
  O       3.829314      7.137342      3.208712
  O       2.980653      5.109429      3.614691
  N       5.776308      4.918519      4.680418
  C       5.389819      5.342335      3.326450
  C       5.501216      4.186919      2.346330
  C       3.946759      5.802344      3.378751
  H       5.985964      6.177722      2.943316
  H       6.544970      3.852805      2.331050
  H       4.882967      3.359951      2.697302
  H       6.035078      5.727072      5.238244
  H       6.606161      4.338473      4.601991
  H       2.870538      7.306462      3.212839
27
Coordinates from ORCA-job 0_Cu_Cys2 E -3080.354528206499
  S       3.299038      1.404113     -1.295752
  O       2.570726      2.477198      2.753012
  O       1.086863      3.255541      1.239356
  N       0.744754      0.224417      1.681946
  C       1.876900      0.963640      1.082487
  C       1.752821      0.967618     -0.429111
  C       1.799836      2.370185      1.650898
  H       2.851554      0.543545      1.352424
  H       1.483221     -0.044364     -0.751084
  H       0.937806      1.638698     -0.707893
  H       0.864943      0.205432      2.692272
  H       0.808420     -0.741283      1.370495
  H       2.555305      3.414854      3.054004
  Cu      4.136959      3.068634     -0.266967
  S       4.990038      4.771611      0.696832
  O       3.819127      7.129625      3.203560
  O       2.982749      5.099029      3.620080
  N       5.779731      4.919746      4.680301
  C       5.390289      5.344369      3.327600
  C       5.508522      4.191030      2.345303
  C       3.944816      5.796578      3.381230
  H       5.981715      6.183763      2.945837
  H       6.554483      3.863714      2.330475
  H       4.895622      3.359627      2.695176
  H       6.036226      5.728123      5.239345
  H       6.611405      4.342633      4.600019
  H       2.859303      7.292247      3.204696
27
Coordinates from ORCA-job 0_Cu_Cys2 E -3080.354581662466
  S       3.306631      1.396105     -1.284033
  O       2.591566      2.468548      2.755837
  O       1.098399      3.258546      1.257964
  N       0.732626      0.233705      1.680116
  C       1.873712      0.963765      1.086395
  C       1.751033      0.978959     -0.425098
  C       1.812538      2.369291      1.659460
  H       2.843409      0.531910      1.355341
  H       1.464935     -0.025316     -0.756613
  H       0.948535      1.666335     -0.700244
  H       0.849285      0.210199      2.690799
  H       0.788489     -0.731632      1.365940
  H       2.580214      3.405087      3.061442
  Cu      4.144284      3.065224     -0.261949
  S       4.998178      4.773781      0.692848
  O       3.793555      7.110651      3.175808
  O       2.984370      5.078210      3.632675
  N       5.777655      4.918662      4.680092
  C       5.387399      5.347350      3.329555
  C       5.521641      4.199269      2.341923
  C       3.936933      5.783633      3.377526
  H       5.971005      6.194855      2.953747
  H       6.572322      3.886907      2.328759
  H       4.920608      3.357888      2.688899
  H       6.031796      5.724959      5.243106
  H       6.610556      4.343596      4.598024
  H       2.831497      7.259836      3.168220
27
Coordinates from ORCA-job 0_Cu_Cys2 E -3080.354638278560
  S       3.323279      1.390431     -1.256338
  O       2.609310      2.443660      2.769322
  O       1.118111      3.262574      1.285782
  N       0.706856      0.239080      1.670536
  C       1.862849      0.959129      1.093304
  C       1.751579      0.992481     -0.418962
  C       1.818938      2.359883      1.680032
  H       2.824564      0.511175      1.364327
  H       1.450605     -0.002927     -0.763446
  H       0.964644      1.697316     -0.694278
  H       0.813134      0.205898      2.682052
  H       0.754634     -0.724223      1.349104
  H       2.606470      3.378152      3.080607
  Cu      4.158038      3.068240     -0.249458
  S       5.008961      4.786084      0.685745
  O       3.767757      7.092689      3.144929
  O       2.987076      5.057229      3.634759
  N       5.777942      4.917261      4.677354
  C       5.386278      5.355557      3.331000
  C       5.541082      4.217229      2.333748
  C       3.930181      5.772788      3.373159
  H       5.960168      6.213730      2.964306
  H       6.598225      3.926840      2.321594
  H       4.957762      3.361684      2.676895
  H       6.028775      5.718896      5.248135
  H       6.612368      4.345324      4.590705
  H       2.803583      7.224143      3.121624
27
Coordinates from ORCA-job 0_Cu_Cys2 E -3080.354680090247
  S       3.331750      1.383956     -1.252085
  O       2.614631      2.437489      2.773100
  O       1.118701      3.258991      1.295587
  N       0.699997      0.240754      1.665193
  C       1.861625      0.956380      1.094304
  C       1.754982      0.995338     -0.418778
  C       1.822049      2.355891      1.685010
  H       2.819888      0.502256      1.367156
  H       1.448872      0.002324     -0.765915
  H       0.972548      1.705201     -0.694001
  H       0.802033      0.204314      2.677071
  H       0.743966     -0.722015      1.341437
  H       2.610313      3.371142      3.087720
  Cu      4.159555      3.066948     -0.248015
  S       5.005063      4.788848      0.685677
  O       3.763300      7.091224      3.137846
  O       2.991017      5.055247      3.641379
  N       5.780598      4.919624      4.676273
  C       5.387515      5.359489      3.331268
  C       5.541229      4.221903      2.332834
  C       3.930490      5.773111      3.372289
  H       5.960418      6.218458      2.964870
  H       6.598297      3.931299      2.318398
  H       4.958338      3.366649      2.677621
  H       6.033937      5.720041      5.247666
  H       6.613485      4.345636      4.588100
  H       2.798574      7.219825      3.114534
27
Coordinates from ORCA-job 0_Cu_Cys2 E -3080.354753692660
  S       3.359572      1.359943     -1.231270
  O       2.619463      2.420462      2.778916
  O       1.127796      3.254249      1.303512
  N       0.674130      0.248340      1.649021
  C       1.853498      0.947701      1.095684
  C       1.766449      0.992512     -0.419559
  C       1.827055      2.346171      1.689624
  H       2.801091      0.477802      1.378569
  H       1.451539      0.003209     -0.770044
  H       0.996021      1.712112     -0.702941
  H       0.761826      0.207170      2.662079
  H       0.707035     -0.714054      1.322701
  H       2.617431      3.352950      3.096812
  Cu      4.164263      3.061011     -0.239794
  S       4.989516      4.796906      0.685816
  O       3.751756      7.090234      3.143341
  O       3.001096      5.047504      3.656565
  N       5.795862      4.929441      4.670758
  C       5.391323      5.371061      3.330508
  C       5.543032      4.235389      2.328696
  C       3.931450      5.773877      3.378760
  H       5.957692      6.233471      2.962084
  H       6.601189      3.949614      2.304727
  H       4.966541      3.377978      2.679328
  H       6.052826      5.728429      5.242457
  H       6.627935      4.355453      4.575317
  H       2.785785      7.211388      3.124872
27
Coordinates from ORCA-job 0_Cu_Cys2 E -3080.354812061586
  S       3.392550      1.330612     -1.203831
  O       2.632912      2.406943      2.781208
  O       1.136240      3.248210      1.314818
  N       0.645228      0.257695      1.631534
  C       1.844609      0.938373      1.099799
  C       1.780376      0.991363     -0.417500
  C       1.831947      2.335569      1.697532
  H       2.779555      0.450434      1.393778
  H       1.452628      0.008142     -0.773952
  H       1.025722      1.724451     -0.708551
  H       0.715719      0.210443      2.645676
  H       0.665446     -0.703704      1.301184
  H       2.635047      3.339696      3.099189
  Cu      4.170975      3.055220     -0.232193
  S       4.975395      4.806382      0.684342
  O       3.735428      7.085779      3.151718
  O       3.011061      5.033440      3.667923
  N       5.811234      4.939740      4.663898
  C       5.394266      5.382586      3.328560
  C       5.544601      4.249372      2.323245
  C       3.930893      5.771423      3.385379
  H       5.952543      6.249473      2.958432
  H       6.603361      3.967177      2.290036
  H       4.973295      3.390436      2.679012
  H       6.071422      5.737518      5.235754
  H       6.642671      4.366151      4.561082
  H       2.768044      7.197398      3.138467
27
Coordinates from ORCA-job 0_Cu_Cys2 E -3080.354878106008
  S       3.442041      1.286554     -1.155786
  O       2.637612      2.385549      2.785528
  O       1.149138      3.241243      1.319160
  N       0.600395      0.271493      1.603385
  C       1.828327      0.924387      1.104437
  C       1.802349      0.982696     -0.414960
  C       1.834790      2.321058      1.702601
  H       2.744130      0.413135      1.418049
  H       1.461715      0.006118     -0.778239
  H       1.070045      1.731358     -0.722751
  H       0.643424      0.218367      2.618744
  H       0.603903     -0.688672      1.268902
  H       2.647932      3.318745      3.101769
  Cu      4.181778      3.046856     -0.219485
  S       4.956171      4.819435      0.680981
  O       3.715892      7.081992      3.181070
  O       3.025378      5.014533      3.685048
  N       5.838671      4.958649      4.651279
  C       5.399084      5.398568      3.322575
  C       5.548946      4.268054      2.313615
  C       3.931426      5.767950      3.399480
  H       5.942739      6.272394      2.947276
  H       6.609373      3.994838      2.266972
  H       4.988591      3.404590      2.676192
  H       6.099712      5.757591      5.220966
  H       6.672486      4.390804      4.537264
  H       2.747124      7.182039      3.182469
27
Coordinates from ORCA-job 0_Cu_Cys2 E -3080.354920982403
  S       3.478244      1.255640     -1.110918
  O       2.644304      2.367482      2.790690
  O       1.159931      3.235921      1.328489
  N       0.563812      0.281751      1.581798
  C       1.813453      0.913573      1.111689
  C       1.818090      0.980120     -0.408131
  C       1.835955      2.308725      1.712144
  H       2.713575      0.383520      1.439048
  H       1.466158      0.011471     -0.782083
  H       1.105611      1.743347     -0.726242
  H       0.584434      0.220735      2.597326
  H       0.554020     -0.675736      1.240075
  H       2.666373      3.301833      3.103027
  Cu      4.195750      3.046877     -0.215218
  S       4.959248      4.831499      0.673008
  O       3.698328      7.073794      3.206797
  O       3.033114      4.992689      3.685674
  N       5.855264      4.975849      4.640441
  C       5.400992      5.407634      3.313382
  C       5.558136      4.279315      2.304018
  C       3.929691      5.759052      3.405490
  H       5.930858      6.288341      2.934731
  H       6.620110      4.013526      2.253886
  H       5.004406      3.411311      2.665796
  H       6.108985      5.779226      5.207057
  H       6.695435      4.418425      4.522486
  H       2.728895      7.164404      3.222080
27
Coordinates from ORCA-job 0_Cu_Cys2 E -3080.354939560447
  S       3.509373      1.235317     -1.068593
  O       2.644779      2.356244      2.793395
  O       1.155590      3.229760      1.340372
  N       0.534074      0.286495      1.562491
  C       1.799518      0.905869      1.119447
  C       1.833419      0.978031     -0.399496
  C       1.829270      2.300040      1.721482
  H       2.687785      0.364980      1.461099
  H       1.477614      0.015963     -0.786356
  H       1.136910      1.751408     -0.727818
  H       0.533675      0.219731      2.577756
  H       0.519658     -0.668683      1.214884
  H       2.673316      3.291016      3.103698
  Cu      4.207760      3.052456     -0.212733
  S       4.963703      4.843502      0.665948
  O       3.689519      7.066589      3.229974
  O       3.037362      4.977306      3.684422
  N       5.868081      4.988547      4.631062
  C       5.402489      5.411035      3.303396
  C       5.567447      4.285338      2.294441
  C       3.929448      5.750412      3.409520
  H       5.919886      6.297518      2.921149
  H       6.631504      4.028523      2.242605
  H       5.022246      3.410516      2.652345
  H       6.112640      5.797747      5.193402
  H       6.716072      4.443637      4.510770
  H       2.720035      7.151027      3.257879
27
Coordinates from ORCA-job 0_Cu_Cys2 E -3080.354954553720
  S       3.494617      1.247548     -1.082714
  O       2.645369      2.361225      2.786411
  O       1.146426      3.228336      1.339927
  N       0.540926      0.279118      1.569049
  C       1.800121      0.906285      1.118604
  C       1.826004      0.976236     -0.399825
  C       1.825151      2.301635      1.718930
  H       2.693593      0.372191      1.457616
  H       1.476183      0.013062     -0.788938
  H       1.122782      1.744935     -0.724869
  H       0.546600      0.213372      2.584341
  H       0.531687     -0.676456      1.222422
  H       2.674665      3.296177      3.095827
  Cu      4.207695      3.058079     -0.222077
  S       4.977416      4.840135      0.666477
  O       3.700521      7.072288      3.238189
  O       3.031123      4.983963      3.668974
  N       5.861000      4.989040      4.635413
  C       5.401948      5.406044      3.302697
  C       5.569291      4.277830      2.298486
  C       3.930406      5.752437      3.404849
  H       5.922293      6.290215      2.918937
  H       6.633127      4.018300      2.253988
  H       5.020465      3.403569      2.651766
  H       6.098541      5.802198      5.195268
  H       6.713541      4.449819      4.520948
  H       2.731681      7.162743      3.265844
27
Coordinates from ORCA-job 0_Cu_Cys2 E -3080.354968036103
  S       3.498549      1.245351     -1.083554
  O       2.647910      2.368400      2.780130
  O       1.136141      3.225557      1.340825
  N       0.542375      0.278493      1.567359
  C       1.801621      0.906665      1.118337
  C       1.829566      0.973458     -0.400080
  C       1.822781      2.303367      1.716693
  H       2.695083      0.374903      1.461018
  H       1.481385      0.009380     -0.788227
  H       1.125862      1.740858     -0.727379
  H       0.545577      0.215923      2.582893
  H       0.536753     -0.678280      1.223836
  H       2.671068      3.303234      3.090656
  Cu      4.204092      3.056292     -0.220566
  S       4.966519      4.839353      0.669023
  O       3.704085      7.075370      3.240302
  O       3.031401      4.988513      3.674508
  N       5.862995      4.985641      4.635262
  C       5.402066      5.405642      3.304269
  C       5.564207      4.277720      2.298905
  C       3.931505      5.755241      3.407832
  H       5.923650      6.288693      2.919483
  H       6.627778      4.017260      2.251187
  H       5.016301      3.403543      2.654026
  H       6.104371      5.797724      5.195165
  H       6.714308      4.445048      4.517400
  H       2.735222      7.166974      3.267235
27
Coordinates from ORCA-job 0_Cu_Cys2 E -3080.354971354659
  S       3.495070      1.246531     -1.088995
  O       2.650385      2.369170      2.777041
  O       1.136150      3.225410      1.339587
  N       0.543179      0.278722      1.567575
  C       1.802089      0.906514      1.116815
  C       1.827887      0.971150     -0.401664
  C       1.823982      2.303687      1.714423
  H       2.695727      0.375191      1.459681
  H       1.481250      0.005758     -0.787894
  H       1.121954      1.736488     -0.729226
  H       0.546881      0.218075      2.583254
  H       0.538167     -0.678794      1.225988
  H       2.672675      3.303767      3.088386
  Cu      4.202413      3.054533     -0.221027
  S       4.965275      4.836799      0.670616
  O       3.705394      7.077367      3.241810
  O       3.031533      4.990447      3.675377
  N       5.863349      4.985897      4.636371
  C       5.402244      5.406242      3.305758
  C       5.563167      4.277555      2.300824
  C       3.931887      5.756897      3.408793
  H       5.924612      6.288504      2.920108
  H       6.626674      4.016567      2.253277
  H       5.014880      3.403972      2.656860
  H       6.104571      5.798000      5.196424
  H       6.715247      4.446288      4.517756
  H       2.736528      7.169587      3.268622
27
Coordinates from ORCA-job 0_Cu_Cys2 E -3080.354973983975
  S       3.498232      1.244472     -1.085066
  O       2.651787      2.366840      2.777757
  O       1.137657      3.224917      1.341280
  N       0.538893      0.280520      1.564595
  C       1.800476      0.905498      1.117394
  C       1.829377      0.970954     -0.401047
  C       1.824571      2.302307      1.715662
  H       2.691982      0.371703      1.461931
  H       1.482238      0.005960     -0.787880
  H       1.124831      1.737117     -0.729660
  H       0.539402      0.219812      2.580285
  H       0.532798     -0.676993      1.222994
  H       2.674982      3.301452      3.089024
  Cu      4.203844      3.054268     -0.219952
  S       4.965557      4.837612      0.670052
  O       3.702445      7.075532      3.242448
  O       3.033223      4.987279      3.677064
  N       5.865653      4.987545      4.635308
  C       5.402683      5.407632      3.305342
  C       5.564461      4.279341      2.300007
  C       3.931764      5.755514      3.409634
  H       5.923352      6.290755      2.919368
  H       6.628222      4.019459      2.252080
  H       5.017093      3.405280      2.656300
  H       6.105588      5.799817      5.195685
  H       6.718649      4.449897      4.515630
  H       2.733413      7.165831      3.270304
