28
Coordinates from ORCA-job 1_Cu2_Cys2 E -4719.797110053270
  Cu     -1.149967     -0.514606     -0.706152
  Cu      1.314271     -0.385123      0.389142
  S       3.846431     -0.245056      1.590513
  O       7.382776      1.188154      3.849825
  O       5.754427     -0.391139      3.849983
  N       7.907807      0.155380      1.284511
  C       6.539485      0.442250      1.719715
  C       5.564780     -0.535844      1.061232
  C       6.512356      0.348845      3.233796
  H       6.275139      1.469483      1.440527
  H       5.600791     -0.432814     -0.028810
  H       5.816954     -1.573784      1.307180
  H       8.537713      0.871152      1.645593
  H       7.962662      0.216844      0.268524
  H       7.331114      1.116492      4.826759
  S      -3.449943     -0.548807     -1.566042
  O      -7.219563      1.761281     -1.222860
  O      -5.443843      1.388800     -2.584391
  N      -7.510739     -1.032286     -1.408100
  C      -6.201197     -0.421635     -1.171014
  C      -5.102261     -1.277305     -1.803852
  C      -6.240216      0.981545     -1.746744
  H      -6.027073     -0.338308     -0.091306
  H      -5.094116     -2.277446     -1.356914
  H      -5.261567     -1.394478     -2.881950
  H      -8.226069     -0.513648     -0.899369
  H      -7.520857     -1.977143     -1.025791
  H      -7.209657      2.665745     -1.602404
28
Coordinates from ORCA-job 1_Cu2_Cys2 E -4719.816717706271
  Cu     -1.120951     -0.443969     -0.696881
  Cu      1.300713     -0.340955      0.448463
  S       3.771663     -0.223870      1.711189
  O       7.557633      1.201915      3.745595
  O       6.014662     -0.413440      4.011225
  N       7.855232      0.106958      1.246452
  C       6.504809      0.402221      1.766943
  C       5.484026     -0.554334      1.164983
  C       6.627650      0.327121      3.276824
  H       6.214597      1.427769      1.502354
  H       5.503683     -0.439828      0.074983
  H       5.744965     -1.590202      1.405425
  H       8.506440      0.823474      1.560081
  H       7.834193      0.162954      0.232255
  H       7.610785      1.122358      4.710664
  S      -3.388806     -0.428400     -1.608860
  O      -7.387427      1.654797     -1.222165
  O      -5.723292      1.477927     -2.725767
  N      -7.452126     -1.084164     -1.405809
  C      -6.164461     -0.385807     -1.219054
  C      -5.032096     -1.191161     -1.842104
  C      -6.359995      0.993696     -1.818337
  H      -5.953375     -0.263243     -0.148554
  H      -5.003304     -2.177648     -1.364495
  H      -5.208418     -1.331844     -2.913061
  H      -8.181045     -0.600138     -0.886237
  H      -7.381874     -2.013802     -1.001925
  H      -7.484245      2.528165     -1.632586
28
Coordinates from ORCA-job 1_Cu2_Cys2 E -4719.830281827180
  Cu     -1.071101     -0.363336     -0.703545
  Cu      1.284604     -0.288773      0.493263
  S       3.654620     -0.193205      1.825739
  O       7.538718      1.202227      3.640356
  O       6.092209     -0.452977      4.063548
  N       7.722353      0.072220      1.185915
  C       6.383391      0.365916      1.770572
  C       5.336446     -0.569732      1.219519
  C       6.596616      0.280823      3.263913
  H       6.058564      1.388820      1.535204
  H       5.338503     -0.434709      0.130675
  H       5.617069     -1.603188      1.445073
  H       8.379513      0.792750      1.469651
  H       7.636864      0.132326      0.176533
  H       7.634396      1.095195      4.595227
  S      -3.289144     -0.273897     -1.672536
  O      -7.365899      1.576674     -1.180845
  O      -5.848535      1.488799     -2.825290
  N      -7.308689     -1.127636     -1.336153
  C      -6.036642     -0.360096     -1.227708
  C      -4.896695     -1.118868     -1.860040
  C      -6.343963      0.974843     -1.864880
  H      -5.764504     -0.179880     -0.178972
  H      -4.834760     -2.084925     -1.342819
  H      -5.115537     -1.295243     -2.916753
  H      -8.030398     -0.659693     -0.796163
  H      -7.159492     -2.033736     -0.904249
  H      -7.518868      2.415852     -1.633637
28
Coordinates from ORCA-job 1_Cu2_Cys2 E -4719.844997792887
  Cu     -0.994366     -0.249180     -0.707376
  Cu      1.255340     -0.213611      0.565580
  S       3.460698     -0.149199      1.985733
  O       7.467606      1.156794      3.537186
  O       6.188231     -0.605736      4.056568
  N       7.461133      0.072182      1.059394
  C       6.168757      0.330504      1.770034
  C       5.081164     -0.584458      1.277000
  C       6.522742      0.187171      3.229709
  H       5.803300      1.354477      1.616820
  H       5.040386     -0.425708      0.190852
  H       5.373497     -1.621612      1.472044
  H       8.123846      0.798648      1.310346
  H       7.267181      0.167783      0.067049
  H       7.648242      0.971473      4.471167
  S      -3.125564     -0.047726     -1.761681
  O      -7.288167      1.511600     -1.174456
  O      -6.000046      1.385638     -3.002513
  N      -7.030136     -1.184183     -1.165346
  C      -5.816703     -0.309233     -1.216749
  C      -4.660671     -1.021658     -1.864145
  C      -6.289764      0.928270     -1.939064
  H      -5.475145     -0.005031     -0.219139
  H      -4.532462     -1.952199     -1.293859
  H      -4.923311     -1.265949     -2.897684
  H      -7.739399     -0.725365     -0.602721
  H      -6.755086     -2.029566     -0.674261
  H      -7.541666      2.272424     -1.718887
28
Coordinates from ORCA-job 1_Cu2_Cys2 E -4719.862176373736
  Cu     -0.876161     -0.066203     -0.720486
  Cu      1.183171     -0.088638      0.674833
  S       3.107806     -0.068847      2.214991
  O       7.237638      1.076568      3.381459
  O       6.156690     -0.808475      3.937097
  N       6.963096      0.048669      0.846514
  C       5.771379      0.278881      1.730825
  C       4.606267     -0.594024      1.338628
  C       6.314320      0.043957      3.116506
  H       5.392646      1.307611      1.700798
  H       4.482341     -0.411798      0.261812
  H       4.890445     -1.641662      1.484556
  H       7.647645      0.771153      1.045364
  H       6.622338      0.194656     -0.099260
  H       7.518304      0.795330      4.267633
  S      -2.835833      0.310931     -1.908530
  O      -7.053951      1.432495     -1.138010
  O      -6.083313      1.127400     -3.137588
  N      -6.476716     -1.248390     -0.880813
  C      -5.405964     -0.236734     -1.171308
  C      -4.216301     -0.864412     -1.852619
  C      -6.122871      0.807430     -1.988146
  H      -5.010868      0.257756     -0.276564
  H      -3.957231     -1.725190     -1.219575
  H      -4.524748     -1.225861     -2.838393
  H      -7.174345     -0.806057     -0.290781
  H      -6.018489     -1.968620     -0.330169
  H      -7.447654      2.048627     -1.777178
28
Coordinates from ORCA-job 1_Cu2_Cys2 E -4719.872786075117
  Cu     -0.773587      0.119127     -0.752346
  Cu      1.089947      0.052155      0.766742
  S       2.743159      0.037759      2.378042
  O       7.000566      0.949250      3.231750
  O       5.979549     -0.989419      3.743280
  N       6.449492      0.011638      0.670565
  C       5.365482      0.252082      1.675984
  C       4.127776     -0.574753      1.386942
  C       6.026359     -0.055815      2.991906
  H       5.028579      1.293018      1.725392
  H       3.927868     -0.410465      0.319355
  H       4.374764     -1.632938      1.524759
  H       7.164151      0.720460      0.811207
  H       6.012691      0.186023     -0.231185
  H       7.377596      0.588105      4.054324
  S      -2.554639      0.619540     -2.057795
  O      -6.819768      1.320683     -1.106456
  O      -6.038399      0.783199     -3.146833
  N      -5.876037     -1.255624     -0.609248
  C      -4.981835     -0.160522     -1.104444
  C      -3.772591     -0.702143     -1.841605
  C      -5.889508      0.680136     -1.960756
  H      -4.591052      0.486598     -0.312797
  H      -3.377715     -1.493128     -1.189972
  H      -4.105472     -1.160001     -2.778718
  H      -6.562857     -0.834292      0.010538
  H      -5.274128     -1.847647     -0.042053
  H      -7.360750      1.763522     -1.784977
28
Coordinates from ORCA-job 1_Cu2_Cys2 E -4719.878410107056
  Cu     -0.722799      0.226794     -0.753224
  Cu      1.025174      0.100697      0.852040
  S       2.563884      0.019840      2.480549
  O       6.791483      1.009443      3.164084
  O       5.889651     -0.999528      3.651969
  N       6.160233     -0.044196      0.549397
  C       5.161666      0.217037      1.622510
  C       3.911430     -0.634392      1.456342
  C       5.906742     -0.058350      2.900512
  H       4.828235      1.259519      1.664601
  H       3.643520     -0.565148      0.394363
  H       4.164139     -1.679571      1.663741
  H       6.867818      0.685022      0.596820
  H       5.658196      0.077837     -0.327195
  H       7.224090      0.690308      3.976636
  S      -2.416773      0.782939     -2.112524
  O      -6.634816      1.334078     -1.040941
  O      -5.952709      0.666677     -3.083392
  N      -5.544466     -1.293592     -0.518381
  C      -4.771735     -0.144850     -1.067489
  C      -3.565957     -0.600392     -1.876358
  C      -5.772383      0.618681     -1.892660
  H      -4.395378      0.536345     -0.297590
  H      -3.092902     -1.395388     -1.287181
  H      -3.913268     -1.040424     -2.817089
  H      -6.215949     -0.923389      0.150290
  H      -4.872276     -1.845285      0.010312
  H      -7.235210      1.745839     -1.688541
28
Coordinates from ORCA-job 1_Cu2_Cys2 E -4719.882232677156
  Cu     -0.697820      0.249480     -0.779641
  Cu      0.967824      0.054934      0.909287
  S       2.481465     -0.116533      2.556382
  O       6.624821      1.191281      3.085512
  O       5.888489     -0.864890      3.639994
  N       6.028380     -0.109455      0.522508
  C       5.054160      0.190103      1.594198
  C       3.863750     -0.758459      1.556433
  C       5.824749      0.074995      2.882290
  H       4.667311      1.213330      1.537531
  H       3.554160     -0.850113      0.508257
  H       4.178685     -1.753098      1.887628
  H       6.677233      0.671579      0.449984
  H       5.506468     -0.134949     -0.350500
  H       7.122169      0.984300      3.895442
  S      -2.345106      0.825562     -2.188516
  O      -6.477852      1.395095     -0.893744
  O      -5.917565      0.729900     -2.970424
  N      -5.404491     -1.321360     -0.552587
  C      -4.662972     -0.146309     -1.060658
  C      -3.518582     -0.549529     -1.980844
  C      -5.681749      0.694116     -1.784214
  H      -4.242589      0.465518     -0.255802
  H      -3.013685     -1.404834     -1.518041
  H      -3.924615     -0.887586     -2.939811
  H      -6.017491     -1.009796      0.198296
  H      -4.715950     -1.933614     -0.120231
  H      -7.129558      1.846883     -1.457129
28
Coordinates from ORCA-job 1_Cu2_Cys2 E -4719.885615496469
  Cu     -0.641521      0.280858     -0.853177
  Cu      0.863887      0.003073      0.955180
  S       2.260003     -0.261300      2.670009
  O       6.176371      1.533568      2.778166
  O       5.725310     -0.466086      3.692653
  N       5.735607     -0.316968      0.503174
  C       4.750617      0.100065      1.524740
  C       3.660437     -0.938734      1.715041
  C       5.545951      0.312231      2.787949
  H       4.265436      1.050415      1.277295
  H       3.317601     -1.244112      0.718831
  H       4.079334     -1.825139      2.200253
  H       6.289318      0.493023      0.233489
  H       5.207652     -0.588427     -0.321868
  H       6.698597      1.547789      3.595405
  S      -2.169786      0.911373     -2.358224
  O      -5.986600      1.424040     -0.430265
  O      -5.789339      1.021492     -2.627970
  N      -5.082967     -1.393295     -0.654420
  C      -4.345707     -0.177677     -1.064161
  C      -3.352773     -0.462370     -2.177613
  C      -5.398792      0.807467     -1.505178
  H      -3.792071      0.275514     -0.235224
  H      -2.816826     -1.381142     -1.913727
  H      -3.893335     -0.653021     -3.109280
  H      -5.560975     -1.199103      0.223010
  H      -4.382207     -2.097552     -0.437851
  H      -6.673583      1.990569     -0.814639
28
Coordinates from ORCA-job 1_Cu2_Cys2 E -4719.888493601942
  Cu     -0.569829      0.566347     -0.785832
  Cu      0.754843      0.170154      1.127443
  S       2.041179     -0.232866      2.901685
  O       5.722907      1.746045      2.241638
  O       5.569655     -0.027038      3.597855
  N       5.326037     -0.644962      0.491792
  C       4.379286     -0.041390      1.460390
  C       3.383499     -1.052413      1.977073
  C       5.242531      0.511919      2.570336
  H       3.808339      0.788547      1.031286
  H       2.964921     -1.575709      1.108245
  H       3.895594     -1.793411      2.598234
  H       5.782952      0.100240     -0.027600
  H       4.760595     -1.150945     -0.184451
  H       6.291251      1.990560      2.988329
  S      -2.004349      1.241742     -2.356902
  O      -5.546572      1.225359     -0.021352
  O      -5.621492      1.179986     -2.256197
  N      -4.632941     -1.493599     -0.835316
  C      -3.970267     -0.189143     -1.079765
  C      -3.085648     -0.224354     -2.306319
  C      -5.093582      0.808902     -1.236622
  H      -3.346555      0.129787     -0.238141
  H      -2.475282     -1.132963     -2.241786
  H      -3.705228     -0.298194     -3.204785
  H      -5.009832     -1.490474      0.109684
  H      -3.891238     -2.188993     -0.828928
  H      -6.281135      1.823418     -0.228394
28
Coordinates from ORCA-job 1_Cu2_Cys2 E -4719.889463377214
  Cu     -0.424914      0.479293     -0.713599
  Cu      0.745441     -0.082000      1.256810
  S       1.966798     -0.661123      3.051022
  O       5.004728      1.969562      1.951051
  O       5.430864      0.327426      3.409266
  N       5.098712     -0.630035      0.421924
  C       4.097522     -0.145180      1.407794
  C       3.381134     -1.284944      2.086339
  C       4.884427      0.688431      2.395222
  H       3.330823      0.489317      0.952063
  H       3.014202     -1.956769      1.300420
  H       4.077098     -1.844164      2.720050
  H       5.330363      0.135869     -0.205660
  H       4.610311     -1.313433     -0.151793
  H       5.547898      2.404611      2.628702
  S      -1.760230      1.255152     -2.330568
  O      -5.129830      1.311187      0.148440
  O      -5.366742      1.345291     -2.075534
  N      -4.457229     -1.438198     -0.857481
  C      -3.724029     -0.159280     -1.053483
  C      -2.894740     -0.171792     -2.316394
  C      -4.793173      0.908982     -1.106013
  H      -3.045588      0.067665     -0.224082
  H      -2.318769     -1.105173     -2.318220
  H      -3.552885     -0.170497     -3.190893
  H      -4.778875     -1.472815      0.107405
  H      -3.751902     -2.168296     -0.927872
  H      -5.831777      1.967465      0.006684
28
Coordinates from ORCA-job 1_Cu2_Cys2 E -4719.889976335431
  Cu     -0.462930      0.589212     -0.744198
  Cu      0.707737      0.065897      1.247174
  S       1.958218     -0.497959      3.051790
  O       5.154790      1.929038      1.991617
  O       5.500432      0.238765      3.421432
  N       5.100334     -0.682001      0.439213
  C       4.130802     -0.128491      1.421827
  C       3.336542     -1.219404      2.102058
  C       4.967462      0.645873      2.415096
  H       3.411148      0.555900      0.960216
  H       2.933656     -1.871827      1.317700
  H       3.993230     -1.813443      2.746264
  H       5.380647      0.071247     -0.185054
  H       4.560413     -1.321448     -0.140168
  H       5.720949      2.322903      2.677170
  S      -1.832762      1.284183     -2.381910
  O      -5.133787      1.265413      0.173689
  O      -5.448792      1.284730     -2.044353
  N      -4.448291     -1.475987     -0.880360
  C      -3.740189     -0.181800     -1.076115
  C      -2.938021     -0.166495     -2.359597
  C      -4.825711      0.869755     -1.094291
  H      -3.048494      0.044331     -0.257341
  H      -2.344325     -1.088110     -2.384796
  H      -3.616408     -0.166737     -3.218772
  H      -4.744201     -1.523798      0.092821
  H      -3.729150     -2.191131     -0.972092
  H      -5.853661      1.907938      0.052581
28
Coordinates from ORCA-job 1_Cu2_Cys2 E -4719.890335106726
  Cu     -0.468255      0.792220     -0.711257
  Cu      0.659856      0.268961      1.303171
  S       1.897664     -0.322909      3.097597
  O       5.220428      1.864182      1.963101
  O       5.531807      0.117169      3.335181
  N       4.946877     -0.757413      0.398540
  C       4.050653     -0.125476      1.403574
  C       3.197643     -1.153408      2.123520
  C       4.963925      0.584317      2.373098
  H       3.374181      0.608333      0.953322
  H       2.735051     -1.791659      1.361347
  H       3.833319     -1.774743      2.762046
  H       5.257921     -0.023795     -0.236624
  H       4.337102     -1.347049     -0.165530
  H       5.842638      2.204528      2.628183
  S      -1.853265      1.408161     -2.371958
  O      -5.115142      1.197178      0.188893
  O      -5.467074      1.138191     -2.026372
  N      -4.275400     -1.532537     -0.874383
  C      -3.654218     -0.193356     -1.062428
  C      -2.857327     -0.115683     -2.352546
  C      -4.801214      0.786946     -1.078146
  H      -2.980280      0.070652     -0.240468
  H      -2.204289     -0.995071     -2.391011
  H      -3.540116     -0.154133     -3.207022
  H      -4.559089     -1.600853      0.102183
  H      -3.508420     -2.196432     -0.968862
  H      -5.875338      1.790230      0.064449
28
Coordinates from ORCA-job 1_Cu2_Cys2 E -4719.890559281395
  Cu     -0.446253      1.008905     -0.634587
  Cu      0.648716      0.456698      1.389856
  S       1.893131     -0.202855      3.149325
  O       5.243513      1.794957      1.961539
  O       5.549420     -0.027560      3.234156
  N       4.788450     -0.811776      0.316475
  C       3.977836     -0.132845      1.364776
  C       3.087884     -1.112420      2.112995
  C       4.967969      0.497628      2.310860
  H       3.335270      0.648752      0.949069
  H       2.554552     -1.710278      1.364837
  H       3.712882     -1.777099      2.716818
  H       5.119148     -0.085332     -0.318276
  H       4.109730     -1.337082     -0.233812
  H       5.897824      2.077605      2.622508
  S      -1.859672      1.532295     -2.309852
  O      -5.184804      1.147114      0.119012
  O      -5.473082      0.931415     -2.095694
  N      -4.095644     -1.562446     -0.824445
  C      -3.577820     -0.180142     -1.023393
  C      -2.735738     -0.068938     -2.284336
  C      -4.795149      0.703343     -1.119016
  H      -2.965247      0.156284     -0.180518
  H      -2.013435     -0.892987     -2.273673
  H      -3.380570     -0.184189     -3.161089
  H      -4.409397     -1.624672      0.143768
  H      -3.270243     -2.158856     -0.864141
  H      -5.989633      1.661035     -0.061567
28
Coordinates from ORCA-job 1_Cu2_Cys2 E -4719.890762980249
  Cu     -0.460705      1.217812     -0.581952
  Cu      0.617805      0.656227      1.451733
  S       1.880499     -0.060906      3.181474
  O       5.303857      1.703516      1.968229
  O       5.559538     -0.188799      3.141872
  N       4.632552     -0.848614      0.256232
  C       3.909094     -0.125684      1.340194
  C       2.966947     -1.046171      2.097740
  C       4.967630      0.408987      2.271914
  H       3.317198      0.708984      0.955337
  H       2.368141     -1.584258      1.353830
  H       3.557095     -1.768331      2.670176
  H       5.004754     -0.137185     -0.372550
  H       3.894138     -1.297398     -0.285914
  H       5.994245      1.915639      2.619140
  S      -1.898179      1.624961     -2.277467
  O      -5.206707      1.090164      0.073098
  O      -5.446072      0.773990     -2.134530
  N      -3.927064     -1.602928     -0.782244
  C      -3.507676     -0.188557     -0.993492
  C      -2.646393     -0.038794     -2.235293
  C      -4.782387      0.603410     -1.137289
  H      -2.940746      0.205073     -0.144037
  H      -1.862907     -0.803600     -2.186605
  H      -3.259557     -0.223438     -3.123149
  H      -4.257856     -1.670826      0.179762
  H      -3.056923     -2.133780     -0.788401
  H      -6.030682      1.557057     -0.146208
28
Coordinates from ORCA-job 1_Cu2_Cys2 E -4719.890959516320
  Cu     -0.481470      1.456763     -0.501508
  Cu      0.586219      0.883549      1.533526
  S       1.838915      0.112054      3.241898
  O       5.284526      1.615652      1.831940
  O       5.491551     -0.260779      3.036711
  N       4.392768     -0.960240      0.228370
  C       3.769105     -0.150183      1.309868
  C       2.802854     -0.976486      2.139877
  C       4.897139      0.350845      2.178438
  H       3.216560      0.707405      0.915723
  H       2.133320     -1.494048      1.443032
  H       3.365578     -1.723446      2.708305
  H       4.791413     -0.305860     -0.444218
  H       3.606090     -1.379964     -0.266292
  H       6.011679      1.810262      2.446823
  S      -1.912978      1.783911     -2.219503
  O      -5.157581      0.945503      0.104244
  O      -5.370765      0.626825     -2.103224
  N      -3.655534     -1.631530     -0.790847
  C      -3.360754     -0.184047     -0.972890
  C      -2.515170      0.062257     -2.207762
  C      -4.697289      0.503951     -1.105670
  H      -2.829220      0.239331     -0.115193
  H      -1.667686     -0.631587     -2.170522
  H      -3.106493     -0.159197     -3.101780
  H      -3.981238     -1.752751      0.167464
  H      -2.744569     -2.088237     -0.808269
  H      -6.017331      1.346599     -0.106942
28
Coordinates from ORCA-job 1_Cu2_Cys2 E -4719.890964807550
  Cu     -0.487266      1.703764     -0.320458
  Cu      0.620615      1.102935      1.684079
  S       1.884349      0.274519      3.355995
  O       5.248914      1.527428      1.572364
  O       5.475522     -0.274464      2.884562
  N       4.129680     -1.106498      0.223289
  C       3.629165     -0.198334      1.288649
  C       2.697720     -0.922063      2.244299
  C       4.842395      0.306315      2.031673
  H       3.083351      0.657240      0.879727
  H       1.946084     -1.441088      1.637932
  H       3.266936     -1.667276      2.808664
  H       4.504839     -0.521090     -0.522095
  H       3.290463     -1.521605     -0.179753
  H       6.028379      1.732258      2.115902
  S      -1.932813      1.995160     -2.032263
  O      -5.202445      0.723327      0.060269
  O      -5.267102      0.476724     -2.165518
  N      -3.401721     -1.636580     -0.852226
  C      -3.242262     -0.161416     -0.955824
  C      -2.359004      0.224199     -2.127397
  C      -4.630788      0.401347     -1.138569
  H      -2.802738      0.270492     -0.050995
  H      -1.449155     -0.384177     -2.069180
  H      -2.874364     -0.011574     -3.063762
  H      -3.767516     -1.836207      0.078008
  H      -2.450982     -2.002910     -0.834990
  H      -6.090619      1.036127     -0.180781
28
Coordinates from ORCA-job 1_Cu2_Cys2 E -4719.891030590178
  Cu     -0.547573      1.834654     -0.269296
  Cu      0.621179      1.252371      1.708434
  S       1.920791      0.428137      3.360095
  O       5.347439      1.422780      1.502935
  O       5.472515     -0.342650      2.877224
  N       4.055706     -1.168144      0.250860
  C       3.618957     -0.201564      1.291485
  C       2.649878     -0.840206      2.269414
  C       4.867209      0.248836      2.011761
  H       3.123650      0.675288      0.861989
  H       1.861606     -1.322224      1.678852
  H       3.172274     -1.610140      2.845978
  H       4.467651     -0.631570     -0.511227
  H       3.191196     -1.541833     -0.138002
  H       6.143717      1.595865      2.032779
  S      -2.025328      2.083132     -1.961359
  O      -5.235428      0.594396      0.056671
  O      -5.266546      0.413419     -2.176826
  N      -3.308318     -1.653176     -0.899920
  C      -3.226396     -0.169988     -0.961586
  C      -2.351851      0.294973     -2.110293
  C      -4.642082      0.321690     -1.144219
  H      -2.819758      0.261573     -0.041146
  H      -1.410460     -0.263973     -2.053822
  H      -2.840674      0.055623     -3.059856
  H      -3.677202     -1.900014      0.017413
  H      -2.340139     -1.969580     -0.880170
  H      -6.132375      0.878876     -0.186565
28
Coordinates from ORCA-job 1_Cu2_Cys2 E -4719.891095161533
  Cu     -0.588939      1.995904     -0.239483
  Cu      0.570729      1.416436      1.737500
  S       1.844473      0.564728      3.382329
  O       5.219839      1.323242      1.353302
  O       5.327593     -0.410925      2.767859
  N       3.752811     -1.247702      0.244710
  C       3.411442     -0.222723      1.263583
  C       2.454527     -0.774589      2.303672
  C       4.710796      0.187294      1.915062
  H       2.942746      0.663291      0.822572
  H       1.614981     -1.229993      1.764733
  H       2.958609     -1.554512      2.883276
  H       4.159319     -0.763852     -0.554563
  H       2.855055     -1.591066     -0.093121
  H       6.046553      1.473450      1.841689
  S      -2.039011      2.196728     -1.956511
  O      -5.008069      0.455898      0.178825
  O      -5.140005      0.279369     -2.051129
  N      -2.967708     -1.645706     -0.909847
  C      -3.003702     -0.160629     -0.945959
  C      -2.225885      0.390462     -2.125560
  C      -4.460683      0.222317     -1.051136
  H      -2.586296      0.288233     -0.039145
  H      -1.240498     -0.090057     -2.121613
  H      -2.736973      0.125497     -3.056366
  H      -3.270177     -1.937241      0.018502
  H      -1.978382     -1.886221     -0.944712
  H      -5.933508      0.678920     -0.016871
28
Coordinates from ORCA-job 1_Cu2_Cys2 E -4719.891175935655
  Cu     -0.635283      2.116717     -0.198323
  Cu      0.575217      1.552738      1.754660
  S       1.878427      0.695469      3.378080
  O       5.248065      1.222229      1.277488
  O       5.286476     -0.471768      2.743968
  N       3.633666     -1.304411      0.266076
  C       3.363177     -0.232991      1.256906
  C       2.396981     -0.703318      2.327524
  C       4.692127      0.128917      1.876812
  H       2.933152      0.662614      0.796009
  H       1.524272     -1.127348      1.816262
  H       2.868220     -1.492801      2.921825
  H       4.054523     -0.869261     -0.553466
  H       2.714750     -1.611485     -0.049089
  H       6.087576      1.348133      1.750951
  S      -2.107012      2.271654     -1.902707
  O      -4.984869      0.324449      0.190301
  O      -5.106046      0.185009     -2.042685
  N      -2.835624     -1.635859     -0.942536
  C      -2.948863     -0.154996     -0.945045
  C      -2.200561      0.461822     -2.111448
  C      -4.423492      0.156140     -1.043384
  H      -2.554521      0.294057     -0.027962
  H      -1.191384      0.033441     -2.116704
  H      -2.696388      0.191729     -3.049087
  H      -3.125209     -1.965238     -0.022816
  H      -1.835276     -1.825373     -0.980163
  H      -5.922464      0.496283      0.000152
28
Coordinates from ORCA-job 1_Cu2_Cys2 E -4719.891175028887
  Cu     -0.709496      2.393562     -0.014539
  Cu      0.625670      1.852571      1.863652
  S       1.994052      0.960297      3.417504
  O       5.123781      1.001094      0.938526
  O       5.182568     -0.573767      2.532159
  N       3.198663     -1.444006      0.333049
  C       3.133838     -0.272978      1.239433
  C       2.257895     -0.559272      2.443126
  C       4.548745      0.014914      1.684399
  H       2.731818      0.617768      0.744761
  H       1.295839     -0.928866      2.067510
  H       2.716630     -1.344219      3.053229
  H       3.567664     -1.128891     -0.562718
  H       2.229149     -1.691774      0.142082
  H       6.019244      1.090216      1.306464
  S      -2.216050      2.443204     -1.694599
  O      -4.858900     -0.005835      0.155242
  O      -4.885799     -0.030262     -2.084890
  N      -2.424928     -1.584546     -1.014248
  C      -2.740475     -0.138411     -0.923379
  C      -2.049263      0.653970     -2.017864
  C      -4.239946     -0.017571     -1.060235
  H      -2.436988      0.294333      0.035852
  H      -0.989961      0.370979     -2.008602
  H      -2.470726      0.382993     -2.991092
  H      -2.700267     -2.018709     -0.134591
  H      -1.407385     -1.637533     -1.019800
  H      -5.805734      0.047289     -0.058830
28
Coordinates from ORCA-job 1_Cu2_Cys2 E -4719.891156380414
  Cu     -0.843663      2.608695      0.078381
  Cu      0.623004      2.111690      1.867834
  S       2.056155      1.220247      3.362627
  O       4.948900      0.723368      0.682486
  O       4.986399     -0.710712      2.404735
  N       2.755069     -1.563711      0.447900
  C       2.878683     -0.315876      1.237143
  C       2.079737     -0.398516      2.522201
  C       4.346397     -0.139220      1.550249
  H       2.527137      0.565329      0.689685
  H       1.056754     -0.689624      2.253249
  H       2.502525     -1.173590      3.169688
  H       3.083183     -1.375177     -0.497790
  H       1.754404     -1.726502      0.350695
  H       5.873882      0.756368      0.979593
  S      -2.387593      2.569333     -1.566317
  O      -4.495837     -0.342508      0.286786
  O      -4.690528     -0.250002     -1.943024
  N      -1.957615     -1.478187     -1.154224
  C      -2.468996     -0.103594     -0.939038
  C      -1.982055      0.846808     -2.017847
  C      -3.976552     -0.196085     -0.966124
  H      -2.157520      0.311504      0.025673
  H      -0.894331      0.727576     -2.090178
  H      -2.424438      0.570977     -2.980302
  H      -2.103301     -2.004149     -0.293947
  H      -0.946207     -1.380783     -1.229210
  H      -5.453957     -0.417107      0.140676
28
Coordinates from ORCA-job 1_Cu2_Cys2 E -4719.891310253195
  Cu     -0.958615      2.755870      0.204773
  Cu      0.662517      2.316921      1.873611
  S       2.184278      1.443357      3.294170
  O       4.680307      0.460077      0.374716
  O       4.839989     -0.802416      2.220318
  N       2.336571     -1.675019      0.650973
  C       2.633623     -0.363763      1.271915
  C       1.994391     -0.249337      2.640953
  C       4.136868     -0.265715      1.393160
  H       2.273655      0.479522      0.672455
  H       0.928605     -0.482092      2.524852
  H       2.438774     -0.985662      3.318565
  H       2.556673     -1.617218     -0.341811
  H       1.324168     -1.777101      0.692948
  H       5.635334      0.453868      0.556396
  S      -2.551572      2.632010     -1.388309
  O      -4.132521     -0.658116      0.328334
  O      -4.468900     -0.435635     -1.875651
  N      -1.555432     -1.335102     -1.329895
  C      -2.230019     -0.064716     -0.974420
  C      -1.938610      1.021711     -1.993573
  C      -3.711600     -0.356719     -0.933389
  H      -1.917413      0.315792      0.004422
  H      -0.850271      1.063197     -2.122382
  H      -2.390630      0.758257     -2.955027
  H      -1.577539     -1.942990     -0.512438
  H      -0.572278     -1.095797     -1.449928
  H      -5.080713     -0.846629      0.225862
28
Coordinates from ORCA-job 1_Cu2_Cys2 E -4719.891425906420
  Cu     -0.990040      2.805423      0.332625
  Cu      0.743774      2.424143      1.894754
  S       2.328355      1.575372      3.254142
  O       4.301110      0.318406      0.071403
  O       4.714066     -0.877453      1.921961
  N       1.964477     -1.716975      0.848573
  C       2.399008     -0.380832      1.323234
  C       1.991755     -0.150610      2.766553
  C       3.904490     -0.341151      1.198948
  H       1.975747      0.438073      0.731939
  H       0.916208     -0.352568      2.837279
  H       2.522710     -0.856675      3.412959
  H       2.013813     -1.727908     -0.169006
  H       0.972286     -1.779377      1.070265
  H       5.271695      0.276631      0.103736
  S      -2.601925      2.617075     -1.231884
  O      -3.865121     -0.865098      0.277212
  O      -4.236917     -0.544052     -1.910075
  N      -1.242408     -1.234818     -1.439455
  C      -2.024714     -0.054455     -0.995306
  C      -1.838170      1.118589     -1.938875
  C      -3.474522     -0.475328     -0.971600
  H      -1.739871      0.286377      0.006627
  H      -0.758980      1.271157     -2.060324
  H      -2.267891      0.875369     -2.915743
  H      -1.202898     -1.896604     -0.664681
  H      -0.286331     -0.899419     -1.549677
  H      -4.800070     -1.106740      0.166016
28
Coordinates from ORCA-job 1_Cu2_Cys2 E -4719.891568727069
  Cu     -1.002645      2.808449      0.352266
  Cu      0.763527      2.440694      1.881007
  S       2.377339      1.618000      3.220965
  O       4.398128      0.270241      0.104059
  O       4.771572     -0.868668      1.997960
  N       2.036393     -1.726373      0.885474
  C       2.469343     -0.381320      1.338566
  C       2.033669     -0.114493      2.767299
  C       3.976896     -0.355308      1.243493
  H       2.064931      0.426668      0.719851
  H       0.954891     -0.305784      2.818428
  H       2.544236     -0.812095      3.438694
  H       2.111473     -1.761224     -0.129657
  H       1.038568     -1.772745      1.082313
  H       5.367239      0.223771      0.160246
  S      -2.647523      2.620849     -1.177444
  O      -3.939641     -0.900430      0.226545
  O      -4.304680     -0.521748     -1.952019
  N      -1.319446     -1.235628     -1.489910
  C      -2.093520     -0.060294     -1.016054
  C      -1.893084      1.137601     -1.924467
  C      -3.545451     -0.474167     -1.010877
  H      -1.812448      0.249878     -0.003828
  H      -0.812043      1.283220     -2.037209
  H      -2.321090      0.924002     -2.908933
  H      -1.293920     -1.920541     -0.735856
  H      -0.359918     -0.906041     -1.580643
  H      -4.873155     -1.139962      0.101333
28
Coordinates from ORCA-job 1_Cu2_Cys2 E -4719.891689111052
  Cu     -1.048560      2.829009      0.374181
  Cu      0.755272      2.474024      1.861293
  S       2.391319      1.646696      3.170606
  O       4.356528      0.187251      0.078137
  O       4.709235     -0.919536      1.994880
  N       1.952260     -1.741019      0.917436
  C       2.417909     -0.395992      1.333323
  C       1.999559     -0.085555      2.758898
  C       3.925249     -0.402004      1.231033
  H       2.025644      0.403638      0.696121
  H       0.916923     -0.248964      2.824835
  H       2.499816     -0.778564      3.442910
  H       2.023970     -1.803950     -0.096569
  H       0.953339     -1.756579      1.113758
  H       5.325113      0.122277      0.128757
  S      -2.702640      2.623770     -1.143403
  O      -3.815933     -0.952720      0.265683
  O      -4.238242     -0.605679     -1.907409
  N      -1.226382     -1.172623     -1.523352
  C      -2.035044     -0.034942     -1.019658
  C      -1.911102      1.176827     -1.924498
  C      -3.468293     -0.508811     -0.978324
  H      -1.738392      0.278234     -0.013359
  H      -0.841365      1.368550     -2.069719
  H      -2.360684      0.953246     -2.897195
  H      -1.155021     -1.862945     -0.777752
  H      -0.282772     -0.804698     -1.631388
  H      -4.738069     -1.242389      0.162376
28
Coordinates from ORCA-job 1_Cu2_Cys2 E -4719.892278052379
  Cu     -1.144647      2.838428      0.515128
  Cu      0.828123      2.573958      1.793066
  S       2.582129      1.802680      2.981100
  O       4.043015     -0.109867     -0.117642
  O       4.599225     -1.010530      1.858096
  N       1.692851     -1.800992      1.260500
  C       2.264065     -0.444240      1.432460
  C       2.057114      0.062726      2.848805
  C       3.742939     -0.544313      1.139363
  H       1.819858      0.290422      0.752509
  H       0.987512     -0.024005      3.075992
  H       2.615371     -0.571895      3.544745
  H       1.629959     -1.996970      0.262998
  H       0.727232     -1.732164      1.576220
  H       5.007305     -0.215936     -0.182602
  S      -2.872096      2.574132     -0.909128
  O      -3.459801     -1.208321      0.197563
  O      -4.063414     -0.755097     -1.912183
  N      -0.999595     -0.956584     -1.784959
  C      -1.890927      0.017918     -1.109733
  C      -1.980842      1.317697     -1.888428
  C      -3.252784     -0.629722     -1.021738
  H      -1.552572      0.265234     -0.098847
  H      -0.956356      1.654633     -2.085124
  H      -2.478489      1.133900     -2.846103
  H      -0.798267     -1.709130     -1.129172
  H      -0.112459     -0.471077     -1.906639
  H      -4.344810     -1.604334      0.125353
28
Coordinates from ORCA-job 1_Cu2_Cys2 E -4719.892572751092
  Cu     -1.208018      2.799723      0.590324
  Cu      0.853710      2.597869      1.726714
  S       2.673375      1.873575      2.835863
  O       3.770694     -0.320752     -0.226438
  O       4.490838     -1.098948      1.748490
  N       1.520531     -1.821613      1.501667
  C       2.143290     -0.476456      1.506396
  C       2.088511      0.147652      2.889790
  C       3.583168     -0.651204      1.083126
  H       1.655428      0.218142      0.813941
  H       1.043270      0.117460      3.220556
  H       2.690680     -0.452412      3.579779
  H       1.356778     -2.094171      0.534062
  H       0.592028     -1.694035      1.900493
  H       4.720389     -0.466999     -0.374076
  S      -2.979284      2.508072     -0.770792
  O      -3.126075     -1.356730      0.164918
  O      -3.917165     -0.864136     -1.873020
  N      -0.843946     -0.773768     -1.962913
  C      -1.772730      0.072730     -1.174903
  C      -2.038031      1.395560     -1.870215
  C      -3.059005     -0.706178     -1.033679
  H      -1.387850      0.300785     -0.175501
  H      -1.064745      1.840825     -2.107563
  H      -2.575835      1.212581     -2.806064
  H      -0.527147     -1.535892     -1.366106
  H      -0.017110     -0.197945     -2.114025
  H      -3.976110     -1.827185      0.130776
28
Coordinates from ORCA-job 1_Cu2_Cys2 E -4719.892677801172
  Cu     -1.232981      2.766284      0.605883
  Cu      0.842522      2.590700      1.706059
  S       2.665792      1.872462      2.790323
  O       3.543273     -0.371588     -0.325095
  O       4.335790     -1.192279      1.604495
  N       1.332585     -1.792081      1.517553
  C       2.004844     -0.469785      1.488670
  C       2.036854      0.159551      2.869842
  C       3.413069     -0.701581      0.993567
  H       1.510951      0.242932      0.819159
  H       1.006755      0.160245      3.245004
  H       2.648594     -0.460270      3.533364
  H       1.114339     -2.057210      0.558484
  H       0.428509     -1.629105      1.959065
  H       4.477147     -0.557911     -0.519028
  S      -2.997463      2.455033     -0.753202
  O      -2.864334     -1.396991      0.234319
  O      -3.745774     -0.957891     -1.779518
  N      -0.660764     -0.690095     -1.945696
  C      -1.633062      0.096902     -1.147317
  C      -1.995494      1.393071     -1.848509
  C      -2.862092     -0.762121     -0.975136
  H      -1.247195      0.361455     -0.154969
  H      -1.053863      1.897579     -2.096310
  H      -2.524339      1.167552     -2.779967
  H      -0.280252     -1.418670     -1.342377
  H       0.120706     -0.057556     -2.114946
  H      -3.694479     -1.902080      0.227884
28
Coordinates from ORCA-job 1_Cu2_Cys2 E -4719.893054779499
  Cu     -1.284440      2.701545      0.688614
  Cu      0.875666      2.598559      1.621222
  S       2.763964      1.916823      2.613974
  O       3.298157     -0.591329     -0.367164
  O       4.224970     -1.294088      1.549429
  N       1.206706     -1.783407      1.769526
  C       1.917134     -0.497228      1.571042
  C       2.092957      0.239575      2.887202
  C       3.267704     -0.821723      0.977638
  H       1.388003      0.177191      0.889092
  H       1.101593      0.309675      3.350138
  H       2.744078     -0.347158      3.543567
  H       0.908110     -2.122719      0.856664
  H       0.341535     -1.545711      2.253075
  H       4.206159     -0.823369     -0.625362
  S      -3.090877      2.360156     -0.606941
  O      -2.565966     -1.518674      0.139927
  O      -3.594958     -1.056761     -1.797621
  N      -0.564607     -0.492646     -2.117676
  C      -1.551974      0.151583     -1.218184
  C      -2.069423      1.448365     -1.815996
  C      -2.687412     -0.824737     -1.029561
  H      -1.128406      0.392163     -0.235114
  H      -1.192146      2.048710     -2.085456
  H      -2.633241      1.229169     -2.728465
  H      -0.091333     -1.222127     -1.585864
  H       0.153622      0.213324     -2.276659
  H      -3.345937     -2.098612      0.150554
28
Coordinates from ORCA-job 1_Cu2_Cys2 E -4719.893440316971
  Cu     -1.295930      2.664736      0.758024
  Cu      0.911701      2.609027      1.587767
  S       2.834181      1.921529      2.527712
  O       3.100851     -0.695707     -0.397938
  O       4.118645     -1.369925      1.482479
  N       1.103808     -1.741091      1.907153
  C       1.847554     -0.492804      1.620098
  C       2.135954      0.275701      2.899351
  C       3.145185     -0.880228      0.952349
  H       1.296555      0.177954      0.951962
  H       1.182351      0.391754      3.428282
  H       2.816800     -0.309335      3.526396
  H       0.738222     -2.098087      1.025700
  H       0.272924     -1.448224      2.418792
  H       3.981250     -0.967845     -0.708909
  S      -3.111276      2.296596     -0.524270
  O      -2.368605     -1.601172      0.072421
  O      -3.479910     -1.128055     -1.816621
  N      -0.501915     -0.387232     -2.206397
  C      -1.491444      0.171371     -1.254908
  C      -2.092375      1.460455     -1.791696
  C      -2.567327     -0.869359     -1.062478
  H      -1.044793      0.398576     -0.280223
  H      -1.256230      2.110617     -2.074825
  H      -2.680905      1.240920     -2.688735
  H       0.024478     -1.109774     -1.717618
  H       0.179532      0.357042     -2.349586
  H      -3.109641     -2.230888      0.087317
28
Coordinates from ORCA-job 1_Cu2_Cys2 E -4719.891538460517
  Cu     -1.285402      2.589749      0.749581
  Cu      0.911747      2.558688      1.550741
  S       2.801518      1.843887      2.457135
  O       2.725543     -0.588140     -0.619469
  O       3.767336     -1.481430      1.152556
  N       0.758125     -1.631979      1.721324
  C       1.587609     -0.430737      1.468305
  C       1.999495      0.233815      2.772338
  C       2.815445     -0.875454      0.710988
  H       1.061949      0.323345      0.871851
  H       1.083177      0.387491      3.354546
  H       2.660262     -0.437966      3.329562
  H       0.316627     -1.898054      0.841707
  H      -0.018248     -1.300465      2.292333
  H       3.565541     -0.909876     -0.987842
  S      -3.064272      2.191007     -0.553557
  O      -2.065163     -1.577073      0.317452
  O      -3.072120     -1.328698     -1.669563
  N      -0.151343     -0.350049     -1.921370
  C      -1.244533      0.175433     -1.068468
  C      -1.914624      1.375453     -1.716763
  C      -2.241623     -0.940327     -0.877567
  H      -0.884712      0.497057     -0.084153
  H      -1.116032      2.074489     -1.991656
  H      -2.429286      1.058002     -2.629509
  H       0.403426     -0.990976     -1.354206
  H       0.470952      0.444434     -2.066272
  H      -2.751758     -2.265075      0.321575
28
Coordinates from ORCA-job 1_Cu2_Cys2 E -4719.893685358402
  Cu     -1.297202      2.545052      0.813099
  Cu      0.954913      2.559450      1.491748
  S       2.924031      1.940059      2.353245
  O       2.850923     -0.910381     -0.373684
  O       4.005342     -1.485658      1.459804
  N       1.017488     -1.682893      2.158780
  C       1.787588     -0.496365      1.717584
  C       2.211257      0.351979      2.905126
  C       3.006790     -0.995259      0.980278
  H       1.212326      0.150998      1.045595
  H       1.310085      0.541376      3.500288
  H       2.922154     -0.212383      3.517047
  H       0.559614     -2.082331      1.340276
  H       0.246850     -1.306645      2.709558
  H       3.690610     -1.247972     -0.728623
  S      -3.162684      2.157817     -0.382049
  O      -2.142303     -1.711338     -0.119522
  O      -3.343157     -1.187192     -1.938512
  N      -0.436036     -0.196409     -2.335608
  C      -1.439660      0.216374     -1.324897
  C      -2.148437      1.491095     -1.747281
  C      -2.429972     -0.913608     -1.191446
  H      -0.988469      0.405729     -0.343516
  H      -1.370367      2.216396     -2.013215
  H      -2.757562      1.291156     -2.634751
  H       0.158970     -0.908283     -1.912004
  H       0.181581      0.608750     -2.434090
  H      -2.835036     -2.392964     -0.141631
28
Coordinates from ORCA-job 1_Cu2_Cys2 E -4719.893798980320
  Cu     -1.290979      2.674435      0.774120
  Cu      0.920760      2.630310      1.605097
  S       2.842638      1.907867      2.540347
  O       2.961796     -0.691601     -0.447000
  O       4.020139     -1.409987      1.394576
  N       1.002689     -1.699048      1.899816
  C       1.780165     -0.473649      1.613008
  C       2.130204      0.262702      2.897016
  C       3.044506     -0.887244      0.898899
  H       1.228711      0.225961      0.974231
  H       1.200914      0.382788      3.466325
  H       2.824721     -0.344853      3.486543
  H       0.586695     -2.017461      1.025023
  H       0.201936     -1.383522      2.445954
  H       3.821473     -0.987538     -0.792762
  S      -3.084675      2.271207     -0.534290
  O      -2.288460     -1.630023      0.073157
  O      -3.375584     -1.174216     -1.834295
  N      -0.400922     -0.370983     -2.155255
  C      -1.427677      0.166520     -1.234168
  C      -2.048186      1.438304     -1.790156
  C      -2.483222     -0.897861     -1.061262
  H      -1.008983      0.409349     -0.250332
  H      -1.224695      2.101424     -2.079626
  H      -2.632242      1.198639     -2.684856
  H       0.139868     -1.068966     -1.645239
  H       0.260247      0.393923     -2.287292
  H      -3.012198     -2.279925      0.074023
28
Coordinates from ORCA-job 1_Cu2_Cys2 E -4719.894511688726
  Cu     -1.308423      2.631560      0.830568
  Cu      0.938701      2.641122      1.548322
  S       2.887569      1.912214      2.408703
  O       2.777625     -0.823240     -0.493895
  O       3.888967     -1.500339      1.331329
  N       0.871746     -1.632436      1.958278
  C       1.699629     -0.460357      1.600843
  C       2.130783      0.304339      2.844394
  C       2.912523     -0.961237      0.855198
  H       1.157739      0.243879      0.958059
  H       1.229457      0.478323      3.443869
  H       2.823580     -0.308991      3.430021
  H       0.398961     -1.948433      1.111066
  H       0.112559     -1.251099      2.522065
  H       3.606997     -1.174380     -0.860803
  S      -3.114985      2.175474     -0.440022
  O      -2.095664     -1.712857      0.027044
  O      -3.219425     -1.248086     -1.856059
  N      -0.285876     -0.261237     -2.133373
  C      -1.351693      0.183434     -1.207946
  C      -2.044060      1.435214     -1.725823
  C      -2.340076     -0.948813     -1.076935
  H      -0.955121      0.419919     -0.213396
  H      -1.258271      2.149355     -1.997697
  H      -2.618599      1.192753     -2.625708
  H       0.297700     -0.933202     -1.634921
  H       0.324276      0.549943     -2.232065
  H      -2.776980     -2.406272      0.000483
28
Coordinates from ORCA-job 1_Cu2_Cys2 E -4719.894582823864
  Cu     -1.315146      2.609403      0.872694
  Cu      0.950361      2.652935      1.515584
  S       2.908673      1.890374      2.315138
  O       2.577737     -0.893524     -0.555224
  O       3.729799     -1.588876      1.236409
  N       0.724214     -1.568805      1.965655
  C       1.599083     -0.441669      1.568070
  C       2.100140      0.318079      2.786471
  C       2.758920     -1.015874      0.793288
  H       1.075084      0.282424      0.932659
  H       1.222377      0.536276      3.406083
  H       2.779789     -0.318872      3.361695
  H       0.205874     -1.866651      1.139069
  H       0.004598     -1.138993      2.546540
  H       3.374897     -1.294591     -0.940709
  S      -3.119801      2.093789     -0.376191
  O      -1.865915     -1.754498      0.048353
  O      -3.041838     -1.339573     -1.813377
  N      -0.165997     -0.176589     -2.097117
  C      -1.255815      0.198914     -1.165625
  C      -2.016669      1.415152     -1.668811
  C      -2.172255     -0.992431     -1.045445
  H      -0.874561      0.450134     -0.168715
  H      -1.267296      2.169324     -1.935560
  H      -2.578187      1.151508     -2.570609
  H       0.459962     -0.813700     -1.604806
  H       0.393938      0.671208     -2.186668
  H      -2.502328     -2.488325      0.012753
28
Coordinates from ORCA-job 1_Cu2_Cys2 E -4719.895012387754
  Cu     -1.319513      2.556450      0.890001
  Cu      0.962971      2.623639      1.465033
  S       2.948121      1.911143      2.240033
  O       2.584605     -1.043378     -0.461355
  O       3.777232     -1.621182      1.345173
  N       0.781106     -1.571486      2.122758
  C       1.645397     -0.465377      1.648953
  C       2.163723      0.362190      2.813886
  C       2.793725     -1.081443      0.889462
  H       1.110152      0.221244      0.982294
  H       1.296012      0.607107      3.437709
  H       2.859277     -0.238850      3.408414
  H       0.249214     -1.913696      1.322449
  H       0.071954     -1.111864      2.693660
  H       3.376640     -1.466192     -0.834002
  S      -3.162724      2.054186     -0.305690
  O      -1.828414     -1.791846     -0.108947
  O      -3.085384     -1.310384     -1.900148
  N      -0.238710     -0.082736     -2.228667
  C      -1.302886      0.231037     -1.245540
  C      -2.101629      1.452544     -1.667801
  C      -2.192616     -0.982481     -1.151290
  H      -0.894394      0.444899     -0.250847
  H      -1.374736      2.230049     -1.930009
  H      -2.692843      1.215934     -2.558070
  H       0.414978     -0.727395     -1.784302
  H       0.300546      0.779993     -2.300950
  H      -2.452164     -2.535555     -0.160606
28
Coordinates from ORCA-job 1_Cu2_Cys2 E -4719.895242746476
  Cu     -1.319432      2.584578      0.908615
  Cu      0.965425      2.660023      1.478476
  S       2.951304      1.923072      2.237141
  O       2.601222     -1.040968     -0.485762
  O       3.770927     -1.615889      1.336848
  N       0.757670     -1.537501      2.062790
  C       1.645765     -0.441842      1.612271
  C       2.156530      0.372112      2.790900
  C       2.796962     -1.069954      0.867369
  H       1.130742      0.255410      0.940945
  H       1.284724      0.614786      3.409815
  H       2.845763     -0.236163      3.385716
  H       0.229592     -1.857801      1.250479
  H       0.049881     -1.071704      2.630680
  H       3.391018     -1.476693     -0.848739
  S      -3.151047      2.050930     -0.293759
  O      -1.877900     -1.835736     -0.121017
  O      -3.087470     -1.301396     -1.929838
  N      -0.209156     -0.111067     -2.152034
  C      -1.302954      0.204638     -1.204180
  C      -2.074827      1.439441     -1.639378
  C      -2.208335     -0.999873     -1.153744
  H      -0.925370      0.403032     -0.194163
  H      -1.333025      2.207807     -1.886153
  H      -2.654414      1.213351     -2.540188
  H       0.424246     -0.761420     -1.685854
  H       0.337506      0.748858     -2.201412
  H      -2.505708     -2.573482     -0.204224
28
Coordinates from ORCA-job 1_Cu2_Cys2 E -4719.895420805675
  Cu     -1.338165      2.604902      0.930124
  Cu      0.957498      2.689745      1.467135
  S       2.948929      1.913654      2.191511
  O       2.583224     -1.118127     -0.490876
  O       3.736642     -1.655078      1.353344
  N       0.709467     -1.517804      2.035551
  C       1.625420     -0.445332      1.584199
  C       2.136407      0.376535      2.757875
  C       2.771911     -1.110139      0.864577
  H       1.133851      0.251074      0.895089
  H       1.264072      0.633969      3.369926
  H       2.817760     -0.231474      3.362095
  H       0.183830     -1.833814      1.219643
  H       0.005981     -1.032077      2.592188
  H       3.365410     -1.580847     -0.836645
  S      -3.165437      2.032020     -0.265910
  O      -1.785630     -1.844776     -0.111627
  O      -3.033318     -1.328200     -1.899609
  N      -0.180384     -0.065676     -2.126426
  C      -1.283477      0.222326     -1.180776
  C      -2.086938      1.437077     -1.616915
  C      -2.153672     -1.007793     -1.131945
  H      -0.912486      0.430136     -0.170521
  H      -1.365244      2.220613     -1.874708
  H      -2.669453      1.192583     -2.511044
  H       0.471078     -0.693931     -1.654889
  H       0.340184      0.810166     -2.181104
  H      -2.387822     -2.603180     -0.198660
28
Coordinates from ORCA-job 1_Cu2_Cys2 E -4719.895506323619
  Cu     -1.322299      2.628222      0.954741
  Cu      0.978087      2.724408      1.484957
  S       2.974191      1.917410      2.184467
  O       2.475667     -1.110522     -0.508006
  O       3.687206     -1.656972      1.295037
  N       0.677554     -1.478250      2.056619
  C       1.600340     -0.412736      1.593217
  C       2.150959      0.391360      2.759167
  C       2.713045     -1.100484      0.843416
  H       1.109414      0.297162      0.918884
  H       1.296535      0.656464      3.392559
  H       2.835415     -0.234209      3.340976
  H       0.129351     -1.782128      1.252166
  H      -0.003559     -0.991052      2.638792
  H       3.235477     -1.594153     -0.873294
  S      -3.139896      2.002389     -0.234737
  O      -1.744190     -1.899056     -0.163790
  O      -3.009769     -1.341549     -1.926014
  N      -0.153138     -0.072815     -2.123360
  C      -1.260799      0.199803     -1.174333
  C      -2.060830      1.422639     -1.590501
  C      -2.125890     -1.034545     -1.159964
  H      -0.897938      0.385943     -0.157455
  H      -1.336347      2.206664     -1.838140
  H      -2.642623      1.189997     -2.487958
  H       0.495575     -0.711857     -1.664173
  H       0.367461      0.803553     -2.165674
  H      -2.339360     -2.659135     -0.275999
28
Coordinates from ORCA-job 1_Cu2_Cys2 E -4719.895740622144
  Cu     -1.330596      2.649409      0.966790
  Cu      0.974711      2.748580      1.478628
  S       2.978500      1.932990      2.149656
  O       2.519394     -1.211125     -0.475517
  O       3.724185     -1.660127      1.358677
  N       0.687461     -1.462837      2.045111
  C       1.627679     -0.412356      1.580892
  C       2.152992      0.415811      2.740524
  C       2.752076     -1.127750      0.876021
  H       1.159905      0.283812      0.876708
  H       1.284996      0.687270      3.352164
  H       2.828558     -0.195859      3.346798
  H       0.155312     -1.780110      1.235642
  H      -0.001098     -0.960806      2.605047
  H       3.280557     -1.716107     -0.807398
  S      -3.156678      2.000741     -0.198042
  O      -1.741824     -1.932961     -0.228674
  O      -3.037865     -1.319046     -1.949279
  N      -0.168344     -0.047059     -2.105983
  C      -1.287200      0.205959     -1.163543
  C      -2.087316      1.432909     -1.565010
  C      -2.146077     -1.032474     -1.185272
  H      -0.937369      0.372781     -0.138870
  H      -1.362781      2.217271     -1.811112
  H      -2.674247      1.207136     -2.460773
  H       0.479537     -0.689240     -1.650071
  H       0.345539      0.833457     -2.133850
  H      -2.330369     -2.693720     -0.367662
28
Coordinates from ORCA-job 1_Cu2_Cys2 E -4719.895762680163
  Cu     -1.337774      2.627564      0.968488
  Cu      0.974961      2.736649      1.455217
  S       2.990267      1.937280      2.121604
  O       2.486603     -1.281540     -0.442008
  O       3.739637     -1.650596      1.379188
  N       0.698927     -1.456961      2.106551
  C       1.635446     -0.423421      1.609126
  C       2.183285      0.422062      2.748120
  C       2.748250     -1.150427      0.896946
  H       1.154607      0.261328      0.901347
  H       1.329236      0.698006      3.377376
  H       2.876816     -0.176159      3.348378
  H       0.149225     -1.784491      1.311997
  H       0.022052     -0.940453      2.667788
  H       3.242742     -1.789907     -0.782002
  S      -3.173781      1.989148     -0.188463
  O      -1.705625     -1.948698     -0.296656
  O      -3.045481     -1.304120     -1.973190
  N      -0.178089     -0.004532     -2.132112
  C      -1.297452      0.219372     -1.188009
  C      -2.117430      1.440203     -1.574805
  C      -2.140781     -1.030034     -1.217278
  H      -0.943486      0.379605     -0.163461
  H      -1.407056      2.235290     -1.827448
  H      -2.716082      1.214603     -2.463162
  H       0.482450     -0.639703     -1.683954
  H       0.322008      0.884179     -2.149890
  H      -2.283837     -2.717694     -0.438088
28
Coordinates from ORCA-job 1_Cu2_Cys2 E -4719.895684289164
  Cu     -1.338604      2.687782      0.915522
  Cu      0.949096      2.745052      1.506926
  S       2.941176      1.944181      2.216953
  O       2.676761     -1.214679     -0.467958
  O       3.834448     -1.574548      1.417738
  N       0.731975     -1.489285      1.943533
  C       1.677790     -0.424503      1.541914
  C       2.129860      0.392867      2.741674
  C       2.851953     -1.107496      0.885960
  H       1.232167      0.274633      0.824017
  H       1.229799      0.629505      3.321364
  H       2.795246     -0.211350      3.367514
  H       0.250279     -1.815389      1.105191
  H       0.002942     -1.002278      2.464027
  H       3.469110     -1.689984     -0.771561
  S      -3.168341      2.086602     -0.265196
  O      -1.850438     -1.916024     -0.193522
  O      -3.140525     -1.261899     -1.905960
  N      -0.200396     -0.098435     -2.030147
  C      -1.339008      0.205890     -1.134320
  C      -2.091661      1.444434     -1.594068
  C      -2.232376     -1.008609     -1.146583
  H      -1.013282      0.389405     -0.103994
  H      -1.337939      2.198041     -1.849042
  H      -2.667774      1.212899     -2.495739
  H       0.414978     -0.751710     -1.545832
  H       0.342092      0.764610     -2.055805
  H      -2.459686     -2.663161     -0.321006
28
Coordinates from ORCA-job 1_Cu2_Cys2 E -4719.895890014765
  Cu     -1.335499      2.670158      0.940187
  Cu      0.959397      2.749121      1.500149
  S       2.960732      1.946163      2.183712
  O       2.556343     -1.260458     -0.467098
  O       3.771793     -1.615845      1.380890
  N       0.695394     -1.456786      1.987574
  C       1.649103     -0.406838      1.558079
  C       2.143163      0.410573      2.739850
  C       2.791518     -1.117424      0.877020
  H       1.199751      0.295506      0.846699
  H       1.261278      0.662956      3.340001
  H       2.815081     -0.200164      3.351412
  H       0.190431     -1.779353      1.162342
  H      -0.013302     -0.956425      2.523425
  H       3.322584     -1.768179     -0.783701
  S      -3.166521      2.037737     -0.222827
  O      -1.741495     -1.944310     -0.239583
  O      -3.091928     -1.289490     -1.903573
  N      -0.175381     -0.058914     -2.061000
  C      -1.308097      0.209716     -1.143452
  C      -2.092335      1.438467     -1.572877
  C      -2.171741     -1.025427     -1.164341
  H      -0.974024      0.384540     -0.114402
  H      -1.357210      2.210829     -1.825569
  H      -2.673607      1.207624     -2.471113
  H       0.457951     -0.708895     -1.596047
  H       0.350108      0.814996     -2.080576
  H      -2.333845     -2.703325     -0.373580
28
Coordinates from ORCA-job 1_Cu2_Cys2 E -4719.895980419972
  Cu     -1.325675      2.665853      0.950518
  Cu      0.976603      2.751453      1.487732
  S       2.985592      1.942407      2.153624
  O       2.457254     -1.301170     -0.451622
  O       3.746857     -1.618444      1.352675
  N       0.677063     -1.436894      2.053343
  C       1.631900     -0.402035      1.588497
  C       2.168568      0.420973      2.747052
  C       2.741424     -1.139065      0.882442
  H       1.173460      0.298954      0.882196
  H       1.307491      0.687887      3.370192
  H       2.851467     -0.191365      3.344319
  H       0.149355     -1.762972      1.244486
  H      -0.012195     -0.923379      2.601948
  H       3.209925     -1.816694     -0.786992
  S      -3.163335      2.014828     -0.194285
  O      -1.658969     -1.972705     -0.309430
  O      -3.065999     -1.305320     -1.919565
  N      -0.169266     -0.025399     -2.092375
  C      -1.297896      0.214948     -1.160466
  C      -2.104191      1.437263     -1.565602
  C      -2.139197     -1.035085     -1.191895
  H      -0.957044      0.380474     -0.132024
  H      -1.383066      2.220307     -1.825125
  H      -2.697872      1.205468     -2.455393
  H       0.475082     -0.675667     -1.643194
  H       0.345363      0.855216     -2.104126
  H      -2.233061     -2.743284     -0.455329
28
Coordinates from ORCA-job 1_Cu2_Cys2 E -4719.896068658839
  Cu     -1.331204      2.676214      0.941419
  Cu      0.968663      2.756499      1.494642
  S       2.980372      1.952598      2.160186
  O       2.458111     -1.348503     -0.438038
  O       3.771057     -1.596521      1.360723
  N       0.682306     -1.431048      2.039984
  C       1.643603     -0.400182      1.582958
  C       2.172092      0.422691      2.746043
  C       2.756120     -1.141136      0.885872
  H       1.191535      0.300548      0.871572
  H       1.308523      0.681431      3.369111
  H       2.858574     -0.185832      3.343373
  H       0.165876     -1.763403      1.226141
  H      -0.014963     -0.914434      2.575485
  H       3.209597     -1.869504     -0.767966
  S      -3.171620      2.026325     -0.199588
  O      -1.648249     -1.983295     -0.335727
  O      -3.091128     -1.289529     -1.903402
  N      -0.168401     -0.016861     -2.072896
  C      -1.308265      0.219140     -1.155403
  C      -2.113890      1.439695     -1.568714
  C      -2.143531     -1.034519     -1.196577
  H      -0.978693      0.384507     -0.122946
  H      -1.393100      2.220991     -1.833952
  H      -2.708901      1.203780     -2.456639
  H       0.469315     -0.671650     -1.620778
  H       0.348059      0.862742     -2.072076
  H      -2.222220     -2.754190     -0.481208
28
Coordinates from ORCA-job 1_Cu2_Cys2 E -4719.896113751847
  Cu     -1.332949      2.707016      0.915048
  Cu      0.955336      2.764675      1.513695
  S       2.963201      1.969101      2.185246
  O       2.494224     -1.400910     -0.429413
  O       3.817619     -1.548549      1.373305
  N       0.688281     -1.421399      1.973170
  C       1.664962     -0.390737      1.552414
  C       2.160720      0.422638      2.736472
  C       2.793942     -1.130439      0.881851
  H       1.234207      0.315423      0.831936
  H       1.283484      0.663824      3.347152
  H       2.843248     -0.184275      3.340043
  H       0.208719     -1.763581      1.140727
  H      -0.034133     -0.904500      2.474205
  H       3.250718     -1.925368     -0.742244
  S      -3.179205      2.069039     -0.219109
  O      -1.658106     -2.000481     -0.355252
  O      -3.134475     -1.264780     -1.872616
  N      -0.168865     -0.031740     -2.003816
  C      -1.332417      0.219930     -1.122409
  C      -2.115455      1.444469     -1.567053
  C      -2.173961     -1.028281     -1.175920
  H      -1.029544      0.389483     -0.081836
  H      -1.381460      2.211015     -1.838086
  H      -2.704589      1.203563     -2.457539
  H       0.441087     -0.704709     -1.540458
  H       0.366018      0.836554     -1.977899
  H      -2.230968     -2.770428     -0.510014
28
Coordinates from ORCA-job 1_Cu2_Cys2 E -4719.896183333260
  Cu     -1.329416      2.705189      0.910079
  Cu      0.957189      2.759813      1.516893
  S       2.967832      1.970411      2.185808
  O       2.451359     -1.425843     -0.418690
  O       3.813723     -1.545394      1.356776
  N       0.678680     -1.410022      1.989396
  C       1.662055     -0.387064      1.563047
  C       2.171967      0.422740      2.742874
  C       2.776811     -1.139761      0.884006
  H       1.233204      0.322705      0.844960
  H       1.302603      0.662801      3.364826
  H       2.861805     -0.185751      3.336246
  H       0.200144     -1.755702      1.158032
  H      -0.041897     -0.885954      2.485699
  H       3.202215     -1.952855     -0.739930
  S      -3.180531      2.065904     -0.214923
  O      -1.616002     -2.007149     -0.381597
  O      -3.132911     -1.272214     -1.858717
  N      -0.163751     -0.013545     -2.012465
  C      -1.329778      0.224233     -1.129716
  C      -2.124120      1.442904     -1.569815
  C      -2.156072     -1.033592     -1.186466
  H      -1.028270      0.393641     -0.088475
  H      -1.397563      2.213136     -1.849716
  H      -2.719686      1.196009     -2.454296
  H       0.445414     -0.692782     -1.557495
  H       0.369674      0.855346     -1.973572
  H      -2.185040     -2.780653     -0.531172
28
Coordinates from ORCA-job 1_Cu2_Cys2 E -4719.896219610971
  Cu     -1.328300      2.702092      0.914064
  Cu      0.960647      2.760964      1.512776
  S       2.976335      1.974955      2.169195
  O       2.400326     -1.461965     -0.406008
  O       3.799474     -1.552156      1.342383
  N       0.662417     -1.389097      2.009309
  C       1.656141     -0.381228      1.569737
  C       2.185996      0.429247      2.740396
  C       2.753482     -1.152936      0.884581
  H       1.229946      0.329484      0.850946
  H       1.327829      0.672211      3.376167
  H       2.884608     -0.178925      3.323589
  H       0.181300     -1.739487      1.181452
  H      -0.052903     -0.851231      2.498706
  H       3.141939     -1.997931     -0.733421
  S      -3.183268      2.054306     -0.199597
  O      -1.569806     -2.023163     -0.423095
  O      -3.118007     -1.281386     -1.863724
  N      -0.152025      0.010715     -2.010393
  C      -1.325091      0.225887     -1.130880
  C      -2.132134      1.439397     -1.562964
  C      -2.135080     -1.041349     -1.200959
  H      -1.029202      0.389349     -0.086903
  H      -1.414655      2.215712     -1.848484
  H      -2.733617      1.188993     -2.442395
  H       0.456071     -0.675367     -1.564187
  H       0.377374      0.881067     -1.949785
  H      -2.130162     -2.801606     -0.578908
28
Coordinates from ORCA-job 1_Cu2_Cys2 E -4719.896248858919
  Cu     -1.328523      2.699112      0.918607
  Cu      0.962235      2.761854      1.506794
  S       2.982101      1.980513      2.147166
  O       2.365678     -1.503167     -0.393373
  O       3.785756     -1.566039      1.339182
  N       0.641667     -1.363481      2.014672
  C       1.652494     -0.375922      1.566680
  C       2.195498      0.436805      2.730054
  C       2.735988     -1.170669      0.886782
  H       1.236859      0.334859      0.841684
  H       1.345163      0.682789      3.374680
  H       2.900056     -0.169938      3.307351
  H       0.166415     -1.722873      1.187172
  H      -0.072287     -0.806526      2.484786
  H       3.100035     -2.049579     -0.719455
  S      -3.188468      2.044497     -0.181287
  O      -1.529334     -2.037815     -0.458327
  O      -3.100057     -1.291468     -1.871802
  N      -0.137922      0.038322     -1.994581
  C      -1.322526      0.227222     -1.124423
  C      -2.141139      1.435462     -1.550909
  C      -2.114944     -1.049405     -1.212962
  H      -1.037745      0.383326     -0.075995
  H      -1.431933      2.217003     -1.841772
  H      -2.747315      1.180999     -2.425869
  H       0.465869     -0.657761     -1.557883
  H       0.387469      0.908767     -1.903242
  H      -2.081451     -2.820334     -0.622132
28
Coordinates from ORCA-job 1_Cu2_Cys2 E -4719.896261913410
  Cu     -1.330805      2.694825      0.923581
  Cu      0.963227      2.762121      1.496343
  S       2.989380      1.987248      2.116354
  O       2.325759     -1.563474     -0.368644
  O       3.773666     -1.584867      1.341549
  N       0.622738     -1.335724      2.029866
  C       1.651494     -0.373702      1.566908
  C       2.210257      0.446436      2.718298
  C       2.718923     -1.195984      0.895045
  H       1.246660      0.333320      0.832136
  H       1.369590      0.696023      3.373683
  H       2.923179     -0.155962      3.289609
  H       0.155371     -1.713132      1.205699
  H      -0.090149     -0.755044      2.472791
  H       3.051399     -2.123316     -0.691012
  S      -3.198188      2.033494     -0.158617
  O      -1.477277     -2.050067     -0.506850
  O      -3.078744     -1.303175     -1.884677
  N      -0.125896      0.080243     -1.981505
  C      -1.322863      0.233091     -1.121501
  C      -2.159608      1.432860     -1.539164
  C      -2.090675     -1.056415     -1.231865
  H      -1.050269      0.379499     -0.068245
  H      -1.463014      2.221557     -1.839871
  H      -2.773894      1.171411     -2.406238
  H       0.475551     -0.627256     -1.559836
  H       0.391837      0.950975     -1.852601
  H      -2.018011     -2.838434     -0.679637
28
Coordinates from ORCA-job 1_Cu2_Cys2 E -4719.896273466233
  Cu     -1.331289      2.692751      0.927960
  Cu      0.963594      2.762966      1.496312
  S       2.989258      1.986322      2.116647
  O       2.339585     -1.548720     -0.376473
  O       3.770554     -1.591227      1.347431
  N       0.622430     -1.336007      2.025247
  C       1.651419     -0.373798      1.564073
  C       2.207770      0.446163      2.716979
  C       2.721796     -1.194086      0.893930
  H       1.247647      0.333466      0.829033
  H       1.365120      0.696067      3.369839
  H       2.918502     -0.157006      3.290285
  H       0.153789     -1.711000      1.200652
  H      -0.089513     -0.755557      2.469996
  H       3.067074     -2.107521     -0.696722
  S      -3.196402      2.031180     -0.158511
  O      -1.493846     -2.049552     -0.494306
  O      -3.077206     -1.302333     -1.892621
  N      -0.125575      0.074031     -1.980252
  C      -1.322061      0.229810     -1.120393
  C      -2.155705      1.432010     -1.537824
  C      -2.094442     -1.057213     -1.231118
  H      -1.049460      0.375083     -0.067140
  H      -1.456524      2.219796     -1.835169
  H      -2.768001      1.173231     -2.407114
  H       0.476354     -0.631667     -1.556302
  H       0.391950      0.945310     -1.854455
  H      -2.037182     -2.835946     -0.668385
28
Coordinates from ORCA-job 1_Cu2_Cys2 E -4719.896271966241
  Cu     -1.331055      2.693825      0.926796
  Cu      0.963108      2.762442      1.499313
  S       2.987909      1.985165      2.123917
  O       2.350832     -1.537684     -0.380522
  O       3.773487     -1.590648      1.349803
  N       0.626678     -1.340897      2.022187
  C       1.653212     -0.374924      1.564287
  C       2.205918      0.443769      2.719964
  C       2.727061     -1.190501      0.893555
  H       1.248729      0.333034      0.830325
  H       1.360954      0.691623      3.370718
  H       2.915036     -0.160309      3.294369
  H       0.159097     -1.715704      1.196949
  H      -0.086894     -0.763579      2.468290
  H       3.080138     -2.094602     -0.700085
  S      -3.195220      2.035539     -0.163968
  O      -1.504470     -2.045440     -0.483412
  O      -3.081355     -1.301325     -1.890563
  N      -0.129352      0.067844     -1.983056
  C      -1.323765      0.229845     -1.121722
  C      -2.154749      1.433061     -1.541600
  C      -2.099736     -1.055651     -1.227567
  H      -1.049448      0.377332     -0.069296
  H      -1.453249      2.218707     -1.839448
  H      -2.766310      1.174180     -2.411396
  H       0.472848     -0.636385     -1.557199
  H       0.389535      0.939081     -1.863329
  H      -2.049301     -2.831247     -0.655708
28
Coordinates from ORCA-job 1_Cu2_Cys2 E -4719.896271958056
  Cu     -1.330494      2.693974      0.927479
  Cu      0.963405      2.762673      1.501325
  S       2.988228      1.985761      2.126814
  O       2.355625     -1.533379     -0.381749
  O       3.774502     -1.590615      1.351418
  N       0.628016     -1.340609      2.020494
  C       1.654452     -0.374129      1.564027
  C       2.205839      0.443927      2.720877
  C       2.729275     -1.188916      0.893756
  H       1.250616      0.334237      0.830053
  H       1.359913      0.690807      3.370789
  H       2.914038     -0.160826      3.295726
  H       0.161556     -1.716321      1.195074
  H      -0.086522     -0.763732      2.465565
  H       3.085248     -2.090470     -0.700354
  S      -3.194417      2.037218     -0.164994
  O      -1.509539     -2.045937     -0.482554
  O      -3.084677     -1.300145     -1.890687
  N      -0.131256      0.064309     -1.983021
  C      -1.325121      0.228806     -1.121586
  C      -2.153990      1.433403     -1.541777
  C      -2.103018     -1.055632     -1.227327
  H      -1.050669      0.375838     -0.069140
  H      -1.450731      2.217682     -1.839228
  H      -2.764967      1.175511     -2.412295
  H       0.470244     -0.640474     -1.557187
  H       0.389020      0.934779     -1.864264
  H      -2.054940     -2.831189     -0.655634
28
Coordinates from ORCA-job 1_Cu2_Cys2 E -4719.896264892614
  Cu     -1.330404      2.692673      0.929467
  Cu      0.963905      2.762626      1.501615
  S       2.989525      1.986437      2.125413
  O       2.355761     -1.535513     -0.380994
  O       3.772998     -1.593543      1.353373
  N       0.626257     -1.337127      2.020075
  C       1.654810     -0.373328      1.563265
  C       2.206744      0.445005      2.719826
  C       2.728676     -1.190683      0.894573
  H       1.252926      0.334978      0.828142
  H       1.360917      0.691959      3.369836
  H       2.914550     -0.160103      3.294793
  H       0.161085     -1.714941      1.194892
  H      -0.088666     -0.757948      2.461627
  H       3.084700     -2.094286     -0.698219
  S      -3.194797      2.037010     -0.163296
  O      -1.507450     -2.047572     -0.486008
  O      -3.084598     -1.300704     -1.891212
  N      -0.131256      0.065673     -1.981442
  C      -1.325769      0.228588     -1.120744
  C      -2.154966      1.433235     -1.540308
  C      -2.102531     -1.056438     -1.228343
  H      -1.052228      0.374603     -0.067894
  H      -1.451627      2.217300     -1.838203
  H      -2.765988      1.175398     -2.410831
  H       0.470216     -0.639647     -1.556457
  H       0.388853      0.936017     -1.860942
  H      -2.052006     -2.833117     -0.660407
