28
Coordinates from ORCA-job 1_Cu2_Cys2 E -4719.896264892614
  Cu         -1.33040407482691      2.69267276477805      0.92946748125071
  Cu          0.96390529547470      2.76262556982088      1.50161507779332
  S           2.98952523023347      1.98643674140085      2.12541348035421
  O           2.35576124639072     -1.53551281143588     -0.38099390880317
  O           3.77299846996294     -1.59354335025023      1.35337316905133
  N           0.62625718840934     -1.33712709470239      2.02007529474947
  C           1.65480954571129     -0.37332798524932      1.56326540168474
  C           2.20674413284108      0.44500533694055      2.71982636524005
  C           2.72867603941538     -1.19068256420800      0.89457326372001
  H           1.25292555971947      0.33497841225836      0.82814222514960
  H           1.36091714788390      0.69195892882328      3.36983590701606
  H           2.91455031203421     -0.16010334350916      3.29479319875205
  H           0.16108480331935     -1.71494083508240      1.19489223595554
  H          -0.08866576853279     -0.75794831454814      2.46162747289295
  H           3.08469957420258     -2.09428584211629     -0.69821861268007
  S          -3.19479715030001      2.03701016251551     -0.16329643257709
  O          -1.50744965550549     -2.04757197924682     -0.48600838225554
  O          -3.08459844405310     -1.30070364820302     -1.89121177280019
  N          -0.13125643416803      0.06567317080197     -1.98144226596736
  C          -1.32576864014813      0.22858791532405     -1.12074448572570
  C          -2.15496569176356      1.43323526632096     -1.54030797740584
  C          -2.10253095598940     -1.05643809971497     -1.22834344764241
  H          -1.05222810790216      0.37460284345062     -0.06789436217948
  H          -1.45162668393270      2.21729951577566     -1.83820265955295
  H          -2.76598792895654      1.17539777029526     -2.41083113885540
  H           0.47021648795302     -0.63964693090885     -1.55645691386491
  H           0.38885250353459      0.93601693505370     -1.86094199296551
  H          -2.05200577600724     -2.83311695538425     -0.66040669033444
