29
Coordinates from ORCA-job 2_Cu3_Cys2 E -6359.666764514804
  Cu         -0.05441153678045     -2.28158081872759     -1.86577414272643
  Cu         -0.58136291318336     -4.34454806435688     -2.77465153519005
  S           0.12394829377232     -0.18760462835641     -1.29039847529620
  Cu          0.07945283579393     -1.15768067287443      0.62517943950465
  S           0.12317243107008     -2.34318719733334      2.38018923920753
  C           0.52467481690662     -1.38458563215906      3.88210463585811
  H          -0.32094544303401     -1.42800223883785      4.57234629804595
  H           1.38311333809552     -1.86306106005096      4.36624724228932
  H           1.64542379606397      0.12951372101469      2.87393360644297
  C           0.87262082909860      0.06957602970899      3.64829659271393
  C          -0.34313697247142      0.81311555290316      3.13674051481493
  O          -1.48535830625277      0.60577889128265      3.50831800549208
  O          -0.01217960274125      1.75799882733882      2.25461959662182
  H          -0.84382836971378      2.04692694254102      1.80604765746835
  N           1.26613314403365      0.70869526867892      4.91729897279457
  H           2.03335423238342      0.17110440454219      5.31144998541215
  H           1.63531150722988      1.63647563408149      4.72434208723753
  C          -1.55080870790669      0.36538578279603     -1.79961141623824
  H          -1.54936745617788      1.45611218175654     -1.83399507453429
  H          -1.73336449428248     -0.01862565798844     -2.80602296469736
  H          -2.54261886770300     -1.17417118323421     -0.68917175114220
  C          -2.66193515575254     -0.10218467665499     -0.88401863647676
  C          -2.56910318403211      0.61999525730289      0.44464410591663
  O          -2.11007462521318      1.74286612185027      0.57939229034429
  O          -3.08035440775329     -0.09811787988278      1.43958766614428
  H          -2.77613597783111      0.30687879291000      2.28918906051280
  N          -3.96893292895983      0.23981194685614     -1.47166168221328
  H          -4.06066090039390     -0.28119175246722     -2.34033873626883
  H          -4.70191494726490     -0.10903802963961     -0.85805960803833
