29
Coordinates from ORCA-job 2_Cu3_Cys2 E -6359.521375395244
  Cu      0.628424     -0.304220     -2.275237
  Cu      3.030437      0.354268     -3.139545
  S      -1.696671     -0.829317     -1.588103
  Cu     -0.704779     -0.895075      0.613281
  S       0.175531     -1.002383      2.814109
  C       0.850756     -1.084691      4.502213
  H       0.133414     -0.595394      5.171100
  H       0.907537     -2.140611      4.788419
  H       2.931830     -0.954956      3.934665
  C       2.231598     -0.433279      4.598412
  C       2.206784      1.028752      4.193748
  O       1.200942      1.598635      3.787257
  O       3.412641      1.643848      4.289283
  H       3.368384      2.582065      4.006446
  N       2.722881     -0.501383      5.976093
  H       2.758617     -1.474349      6.277881
  H       3.682225     -0.158235      6.013471
  C      -3.339326     -1.056793     -2.337997
  H      -3.316749     -0.597431     -3.332923
  H      -3.500328     -2.132271     -2.470387
  H      -4.461722     -0.947144     -0.494627
  C      -4.450326     -0.455632     -1.475095
  C      -4.260503      1.032505     -1.248560
  O      -3.295864      1.660632     -1.668855
  O      -5.242006      1.602713     -0.504868
  H      -5.083802      2.560244     -0.362348
  N      -5.747668     -0.640430     -2.128361
  H      -5.910222     -1.633754     -2.289300
  H      -6.491322     -0.329657     -1.503949
29
Coordinates from ORCA-job 2_Cu3_Cys2 E -6359.539572428604
  Cu      0.633629     -0.327840     -2.304333
  Cu      3.040219      0.264060     -3.151655
  S      -1.661995     -0.807698     -1.593448
  Cu     -0.716138     -0.864027      0.592819
  S       0.147403     -0.956186      2.771355
  C       0.828927     -1.020975      4.456991
  H       0.136424     -0.523340      5.140321
  H       0.878665     -2.076248      4.739745
  H       2.885483     -0.934419      3.878516
  C       2.218783     -0.412497      4.578007
  C       2.279804      1.069105      4.262798
  O       1.346005      1.768314      3.941351
  O       3.539757      1.549718      4.392672
  H       3.542550      2.496517      4.182223
  N       2.706732     -0.557252      5.960817
  H       2.701676     -1.541415      6.213150
  H       3.674931     -0.251749      6.013218
  C      -3.313750     -1.027400     -2.319036
  H      -3.312004     -0.593611     -3.321126
  H      -3.478299     -2.103845     -2.414971
  H      -4.386035     -0.881382     -0.473929
  C      -4.430084     -0.430151     -1.474875
  C      -4.346163      1.074222     -1.311544
  O      -3.492755      1.790744     -1.784110
  O      -5.365730      1.547176     -0.558942
  H      -5.279079      2.509595     -0.472131
  N      -5.729197     -0.719128     -2.102269
  H      -5.830831     -1.724274     -2.211363
  H      -6.478216     -0.419359     -1.484028
29
Coordinates from ORCA-job 2_Cu3_Cys2 E -6359.554643008948
  Cu      0.635858     -0.321780     -2.314974
  Cu      3.033173      0.233637     -3.102050
  S      -1.593135     -0.785964     -1.579205
  Cu     -0.747573     -0.847904      0.578600
  S       0.072452     -0.943202      2.715614
  C       0.760009     -0.996527      4.391532
  H       0.090298     -0.496826      5.092903
  H       0.824303     -2.050135      4.674668
  H       2.781225     -0.916959      3.776272
  C       2.141569     -0.402503      4.507228
  C       2.212266      1.079680      4.225546
  O       1.325788      1.834238      3.955057
  O       3.505802      1.484468      4.330286
  H       3.496416      2.430523      4.138245
  N       2.636054     -0.565070      5.895392
  H       2.619636     -1.552855      6.125295
  H       3.604583     -0.267727      5.942528
  C      -3.251667     -1.011806     -2.267851
  H      -3.281917     -0.586757     -3.270242
  H      -3.424851     -2.087661     -2.338430
  H      -4.251423     -0.851374     -0.407126
  C      -4.346970     -0.421498     -1.415503
  C      -4.288933      1.081366     -1.285341
  O      -3.506731      1.836751     -1.782684
  O      -5.300233      1.491475     -0.482879
  H      -5.216143      2.452012     -0.426284
  N      -5.657096     -0.737775     -2.022664
  H      -5.735886     -1.745015     -2.111476
  H      -6.396164     -0.438157     -1.396233
29
Coordinates from ORCA-job 2_Cu3_Cys2 E -6359.571781749029
  Cu      0.652834     -0.321553     -2.323212
  Cu      3.030512      0.178189     -3.009063
  S      -1.469865     -0.763194     -1.553581
  Cu     -0.796686     -0.843059      0.556041
  S      -0.059296     -0.949904      2.630183
  C       0.636177     -0.986069      4.293273
  H      -0.012839     -0.486635      5.014653
  H       0.716445     -2.037938      4.581437
  H       2.622422     -0.885406      3.611466
  C       2.017840     -0.397170      4.387956
  C       2.085251      1.093570      4.156801
  O       1.227488      1.900338      3.988962
  O       3.411111      1.449642      4.215525
  H       3.371955      2.406700      4.069077
  N       2.543153     -0.597582      5.764562
  H       2.524084     -1.594187      5.954663
  H       3.513175     -0.303566      5.790510
  C      -3.139398     -0.997316     -2.190876
  H      -3.210339     -0.582992     -3.195355
  H      -3.322419     -2.073513     -2.235045
  H      -4.030009     -0.784274     -0.292317
  C      -4.205534     -0.403979     -1.309549
  C      -4.192872      1.104655     -1.243100
  O      -3.519140      1.894841     -1.824316
  O      -5.178979      1.477519     -0.373296
  H      -5.116678      2.444930     -0.385053
  N      -5.533583     -0.779407     -1.847429
  H      -5.575479     -1.792153     -1.889945
  H      -6.248622     -0.473832     -1.196749
29
Coordinates from ORCA-job 2_Cu3_Cys2 E -6359.585830158331
  Cu      0.674787     -0.305070     -2.322345
  Cu      3.012341      0.128203     -2.883349
  S      -1.302292     -0.733514     -1.505790
  Cu     -0.866501     -0.843726      0.533616
  S      -0.250192     -0.984236      2.528458
  C       0.463096     -1.002193      4.175381
  H      -0.171774     -0.511479      4.915988
  H       0.566702     -2.051356      4.469125
  H       2.411699     -0.833325      3.399280
  C       1.846576     -0.399768      4.234121
  C       1.874628      1.102874      4.076125
  O       1.010936      1.923615      4.043880
  O       3.212095      1.469045      3.980218
  H       3.121986      2.432013      3.883975
  N       2.431235     -0.651810      5.576902
  H       2.431820     -1.658110      5.711857
  H       3.397721     -0.343298      5.569018
  C      -2.984719     -0.990092     -2.085878
  H      -3.100749     -0.589523     -3.092276
  H      -3.173368     -2.066897     -2.104137
  H      -3.741536     -0.684435     -0.141382
  C      -4.014060     -0.384148     -1.163021
  C      -4.053174      1.126993     -1.197094
  O      -3.495520      1.913101     -1.899456
  O      -4.924865      1.527572     -0.203737
  H      -4.879734      2.494282     -0.297206
  N      -5.359027     -0.832993     -1.587711
  H      -5.359900     -1.847591     -1.560985
  H      -6.037501     -0.507480     -0.907353
29
Coordinates from ORCA-job 2_Cu3_Cys2 E -6359.591183016744
  Cu      0.676276     -0.304164     -2.325515
  Cu      2.990267      0.062407     -2.881582
  S      -1.242972     -0.722710     -1.474313
  Cu     -0.880872     -0.859217      0.551137
  S      -0.315426     -1.039499      2.529444
  C       0.427625     -1.050098      4.162785
  H      -0.207112     -0.565222      4.908393
  H       0.551864     -2.096100      4.461969
  H       2.342853     -0.784495      3.297107
  C       1.804899     -0.416690      4.178552
  C       1.758741      1.089425      4.085899
  O       0.845626      1.854589      4.229889
  O       3.062015      1.551567      3.942203
  H       2.932869      2.517725      3.938693
  N       2.473612     -0.709007      5.466387
  H       2.522582     -1.720358      5.555247
  H       3.428256     -0.363566      5.419064
  C      -2.933409     -0.992919     -2.039856
  H      -3.055720     -0.602593     -3.051211
  H      -3.129527     -2.069342     -2.048116
  H      -3.622079     -0.573178     -0.077605
  C      -3.941774     -0.356555     -1.105299
  C      -3.999363      1.146078     -1.249559
  O      -3.536868      1.855457     -2.100737
  O      -4.839762      1.642430     -0.270951
  H      -4.847510      2.597786     -0.464828
  N      -5.294653     -0.850603     -1.427566
  H      -5.283738     -1.861297     -1.323895
  H      -5.945989     -0.483194     -0.739514
29
Coordinates from ORCA-job 2_Cu3_Cys2 E -6359.596962036297
  Cu      0.674127     -0.290826     -2.316408
  Cu      2.945094      0.073978     -2.900351
  S      -1.195418     -0.705029     -1.424135
  Cu     -0.880271     -0.905022      0.610266
  S      -0.384443     -1.148273      2.598071
  C       0.412233     -1.131861      4.210289
  H      -0.226315     -0.650312      4.954359
  H       0.567563     -2.169364      4.523606
  H       2.274005     -0.739968      3.234062
  C       1.771272     -0.445301      4.161661
  C       1.616963      1.055276      4.139423
  O       0.642380      1.707276      4.437259
  O       2.794970      1.656830      3.746507
  H       2.609199      2.613677      3.770237
  N       2.546216     -0.751461      5.374152
  H       2.669107     -1.759938      5.419205
  H       3.475523     -0.347319      5.278901
  C      -2.891456     -0.992715     -1.998900
  H      -3.002710     -0.604032     -3.013278
  H      -3.089573     -2.068823     -2.013613
  H      -3.549643     -0.458670     -0.033205
  C      -3.894259     -0.328463     -1.066511
  C      -3.971886      1.155562     -1.332590
  O      -3.550551      1.754967     -2.296212
  O      -4.630624      1.798297     -0.311800
  H      -4.639169      2.740291     -0.562827
  N      -5.243922     -0.858588     -1.301934
  H      -5.226853     -1.858080     -1.115698
  H      -5.880847     -0.445449     -0.624312
29
Coordinates from ORCA-job 2_Cu3_Cys2 E -6359.602421012451
  Cu      0.670421     -0.282068     -2.299025
  Cu      2.883961      0.127807     -2.938862
  S      -1.158119     -0.676070     -1.344819
  Cu     -0.855385     -0.983647      0.700638
  S      -0.448059     -1.316274      2.708280
  C       0.435526     -1.238803      4.279135
  H      -0.200770     -0.754697      5.020525
  H       0.635823     -2.260340      4.614913
  H       2.225079     -0.758485      3.191590
  C       1.754094     -0.484747      4.141506
  C       1.482360      1.000012      4.105358
  O       0.485713      1.544841      4.530912
  O       2.529186      1.700339      3.590373
  H       2.290116      2.641826      3.621877
  N       2.625629     -0.717526      5.299173
  H       2.831258     -1.711301      5.353804
  H       3.517442     -0.252253      5.143667
  C      -2.852065     -0.989690     -1.934884
  H      -2.942172     -0.610104     -2.953522
  H      -3.048973     -2.065124     -1.945838
  H      -3.527767     -0.375022      0.014327
  C      -3.856409     -0.290654     -1.028526
  C      -3.903030      1.179764     -1.371814
  O      -3.501269      1.677037     -2.403536
  O      -4.518768      1.912303     -0.407209
  H      -4.533292      2.835933     -0.708736
  N      -5.211737     -0.807917     -1.241688
  H      -5.222231     -1.795919     -1.002462
  H      -5.845852     -0.352564     -0.588933
29
Coordinates from ORCA-job 2_Cu3_Cys2 E -6359.613025980460
  Cu      0.698623     -0.234886     -2.263723
  Cu      2.805259      0.110115     -3.030027
  S      -1.035096     -0.623222     -1.185259
  Cu     -0.790969     -1.093204      0.873839
  S      -0.638488     -1.621650      2.896585
  C       0.408725     -1.376548      4.359084
  H      -0.217251     -0.867107      5.086302
  H       0.683702     -2.357214      4.751485
  H       2.056830     -0.845272      3.078699
  C       1.637660     -0.534886      4.041537
  C       1.191643      0.909208      3.905287
  O       0.205429      1.342953      4.464562
  O       2.022618      1.660686      3.198943
  H       1.705027      2.573051      3.169758
  N       2.636446     -0.573038      5.114577
  H       2.964605     -1.525894      5.235524
  H       3.457197     -0.039673      4.838578
  C      -2.719579     -0.958568     -1.811983
  H      -2.778679     -0.546571     -2.816948
  H      -2.908463     -2.032350     -1.860765
  H      -3.431481     -0.348799      0.136474
  C      -3.723088     -0.252078     -0.916302
  C      -3.706721      1.225332     -1.262289
  O      -3.299851      1.656833     -2.321673
  O      -4.257389      1.995153     -0.329235
  H      -4.253983      2.916306     -0.621470
  N      -5.091882     -0.717236     -1.155686
  H      -5.156765     -1.701981     -0.914563
  H      -5.723368     -0.242804     -0.515087
29
Coordinates from ORCA-job 2_Cu3_Cys2 E -6359.622334467490
  Cu      0.783650     -0.219155     -2.185592
  Cu      2.782712      0.180965     -3.042187
  S      -0.884094     -0.613694     -1.005214
  Cu     -0.696782     -1.232686      1.059452
  S      -0.842985     -1.885383      3.076775
  C       0.327077     -1.427126      4.403223
  H      -0.288171     -0.866834      5.099298
  H       0.655215     -2.355129      4.871709
  H       1.852752     -0.982700      2.962703
  C       1.470631     -0.568665      3.903025
  C       0.920082      0.824075      3.603737
  O      -0.036358      1.270277      4.199008
  O       1.624406      1.491504      2.731791
  H       1.259276      2.372534      2.585047
  N       2.539298     -0.402840      4.897542
  H       2.941748     -1.307171      5.119983
  H       3.304658      0.133932      4.499400
  C      -2.556215     -0.915590     -1.684854
  H      -2.579003     -0.450111     -2.665838
  H      -2.748055     -1.983198     -1.791719
  H      -3.317865     -0.400363      0.268937
  C      -3.564064     -0.231956     -0.786954
  C      -3.494534      1.271031     -1.040095
  O      -3.067397      1.741697     -2.070752
  O      -4.046662      1.983133     -0.085416
  H      -4.028631      2.921190     -0.310754
  N      -4.941172     -0.637294     -1.098133
  H      -5.049144     -1.630744     -0.917021
  H      -5.579664     -0.183044     -0.450879
29
Coordinates from ORCA-job 2_Cu3_Cys2 E -6359.631889981211
  Cu      0.864580     -0.214184     -2.121420
  Cu      2.835694      0.101362     -3.059831
  S      -0.810013     -0.585462     -0.898125
  Cu     -0.649762     -1.273101      1.158631
  S      -0.939058     -1.980223      3.157955
  C       0.281677     -1.426577      4.409222
  H      -0.317915     -0.858532      5.117099
  H       0.651543     -2.335033      4.886519
  H       1.739803     -1.048152      2.910277
  C       1.378127     -0.574983      3.832152
  C       0.821368      0.798822      3.453428
  O      -0.107955      1.326983      4.012344
  O       1.553257      1.374621      2.515424
  H       1.185013      2.246472      2.311743
  N       2.462536     -0.332585      4.802127
  H       2.871469     -1.222571      5.068419
  H       3.211374      0.187061      4.353956
  C      -2.463468     -0.865273     -1.613170
  H      -2.467014     -0.393678     -2.592901
  H      -2.652013     -1.933230     -1.724684
  H      -3.279539     -0.414630      0.318843
  C      -3.498896     -0.207936     -0.736968
  C      -3.458885      1.307177     -0.925097
  O      -3.016163      1.867611     -1.895277
  O      -4.063504      1.928554      0.079669
  H      -4.053462      2.879608     -0.100719
  N      -4.861298     -0.624805     -1.118215
  H      -4.948128     -1.626841     -0.977121
  H      -5.528657     -0.203818     -0.478056
29
Coordinates from ORCA-job 2_Cu3_Cys2 E -6359.638459221089
  Cu      0.964088     -0.268624     -2.072544
  Cu      2.929318      0.027976     -3.050914
  S      -0.712549     -0.554225     -0.797088
  Cu     -0.623785     -1.341848      1.209551
  S      -1.005497     -2.078852      3.168751
  C       0.225658     -1.432734      4.372859
  H      -0.358756     -0.862048      5.096899
  H       0.643282     -2.318434      4.856580
  H       1.644543     -1.078004      2.840667
  C       1.286927     -0.574590      3.747605
  C       0.720327      0.773135      3.327663
  O      -0.200898      1.360371      3.832517
  O       1.441449      1.257492      2.290181
  H       1.030724      2.103413      2.042854
  N       2.363390     -0.271384      4.712529
  H       2.776866     -1.152327      5.004099
  H       3.098187      0.243959      4.234441
  C      -2.357585     -0.804124     -1.523263
  H      -2.360842     -0.339320     -2.509655
  H      -2.555428     -1.872802     -1.625452
  H      -3.194438     -0.385672      0.399215
  C      -3.413510     -0.167078     -0.653726
  C      -3.415553      1.343007     -0.817136
  O      -3.003566      1.972764     -1.754973
  O      -4.078196      1.904095      0.223088
  H      -4.092262      2.858476      0.038166
  N      -4.759493     -0.611367     -1.070156
  H      -4.807585     -1.618823     -0.945678
  H      -5.444108     -0.215774     -0.430857
29
Coordinates from ORCA-job 2_Cu3_Cys2 E -6359.640937350059
  Cu      1.021777     -0.333180     -2.063283
  Cu      2.973043     -0.208555     -3.150540
  S      -0.654854     -0.486137     -0.726900
  Cu     -0.620028     -1.403162      1.219529
  S      -1.010113     -2.195740      3.150178
  C       0.208663     -1.475573      4.330259
  H      -0.373363     -0.932962      5.078542
  H       0.690956     -2.336827      4.799584
  H       1.609286     -1.062565      2.789916
  C       1.221948     -0.566130      3.687234
  C       0.592509      0.739040      3.244019
  O      -0.313616      1.339976      3.761211
  O       1.338616      1.259163      2.220907
  H       0.898416      2.095693      1.984380
  N       2.276102     -0.194005      4.653834
  H       2.725547     -1.053320      4.959081
  H       2.986178      0.346795      4.164917
  C      -2.290272     -0.751789     -1.465783
  H      -2.300082     -0.298680     -2.458347
  H      -2.478528     -1.824033     -1.559412
  H      -3.156743     -0.356524      0.449504
  C      -3.371675     -0.136351     -0.603516
  C      -3.409738      1.367931     -0.761219
  O      -2.976273      2.034510     -1.664910
  O      -4.022038      1.920154      0.333160
  H      -4.013451      2.878095      0.157777
  N      -4.698166     -0.610363     -1.044780
  H      -4.713788     -1.620449     -0.930218
  H      -5.399605     -0.238355     -0.408902
29
Coordinates from ORCA-job 2_Cu3_Cys2 E -6359.643671262969
  Cu      1.084005     -0.414183     -2.077601
  Cu      2.983115     -0.486095     -3.313599
  S      -0.570559     -0.387981     -0.662623
  Cu     -0.594751     -1.452854      1.209153
  S      -0.971988     -2.306510      3.115171
  C       0.214244     -1.529163      4.294756
  H      -0.370729     -1.015018      5.059956
  H       0.752176     -2.363857      4.752638
  H       1.627054     -1.042242      2.777182
  C       1.184976     -0.562380      3.657460
  C       0.489427      0.694198      3.183635
  O      -0.466949      1.251908      3.660609
  O       1.172111      1.202883      2.101958
  H       0.653870      1.980234      1.824199
  N       2.188561     -0.119095      4.646741
  H       2.674885     -0.949599      4.975240
  H       2.880504      0.452608      4.166684
  C      -2.202530     -0.675173     -1.405192
  H      -2.227062     -0.228333     -2.399786
  H      -2.379822     -1.750023     -1.496729
  H      -3.079329     -0.307048      0.513175
  C      -3.298788     -0.082151     -0.537446
  C      -3.362420      1.419273     -0.681646
  O      -2.966878      2.105445     -1.590382
  O      -4.050225      1.958290      0.383316
  H      -4.081911      2.911519      0.185817
  N      -4.614287     -0.581347     -0.980437
  H      -4.604151     -1.593153     -0.878751
  H      -5.321838     -0.233495     -0.337275
29
Coordinates from ORCA-job 2_Cu3_Cys2 E -6359.645591823994
  Cu      1.085571     -0.528371     -2.145900
  Cu      2.912087     -0.763049     -3.510114
  S      -0.517638     -0.300517     -0.662371
  Cu     -0.586625     -1.477626      1.150082
  S      -0.921800     -2.366632      3.048157
  C       0.217820     -1.563045      4.251127
  H      -0.380394     -1.080775      5.026418
  H       0.794776     -2.375572      4.701486
  H       1.658841     -0.989826      2.782953
  C       1.160166     -0.543041      3.650614
  C       0.414528      0.680705      3.164313
  O      -0.585979      1.173084      3.624861
  O       1.086278      1.239568      2.108196
  H       0.525065      1.975443      1.806133
  N       2.108870     -0.063839      4.675448
  H       2.621635     -0.871964      5.018336
  H       2.792815      0.540732      4.225701
  C      -2.152419     -0.623583     -1.394621
  H      -2.203326     -0.167230     -2.383573
  H      -2.307996     -1.700033     -1.498124
  H      -3.015775     -0.303297      0.540258
  C      -3.247721     -0.061886     -0.504495
  C      -3.324857      1.441193     -0.621012
  O      -2.928974      2.139518     -1.521544
  O      -4.025205      1.963819      0.437304
  H      -4.068800      2.917662      0.252189
  N      -4.562335     -0.568218     -0.937632
  H      -4.541660     -1.581705     -0.859881
  H      -5.266238     -0.244861     -0.278085
29
Coordinates from ORCA-job 2_Cu3_Cys2 E -6359.646545512042
  Cu      1.088808     -0.597016     -2.149021
  Cu      2.765504     -1.065869     -3.672883
  S      -0.483757     -0.228566     -0.662023
  Cu     -0.604766     -1.388085      1.158966
  S      -0.916647     -2.344091      3.029293
  C       0.223140     -1.568009      4.234117
  H      -0.362784     -1.116075      5.036579
  H       0.839521     -2.368532      4.653060
  H       1.669841     -0.948827      2.785874
  C       1.149889     -0.523510      3.652450
  C       0.377520      0.689193      3.172224
  O      -0.646389      1.125292      3.638153
  O       1.030654      1.286133      2.143952
  H       0.445459      1.992616      1.823194
  N       2.080762     -0.039452      4.690474
  H       2.603403     -0.839023      5.037202
  H       2.763845      0.578092      4.258625
  C      -2.112465     -0.577170     -1.414935
  H      -2.176919     -0.086703     -2.386469
  H      -2.240054     -1.651279     -1.559205
  H      -2.991989     -0.354028      0.527453
  C      -3.216502     -0.066917     -0.508298
  C      -3.298883      1.441740     -0.557322
  O      -2.866049      2.169716     -1.416363
  O      -4.032847      1.915012      0.485052
  H      -4.080139      2.874868      0.346510
  N      -4.526824     -0.560262     -0.965899
  H      -4.504979     -1.575953     -0.940401
  H      -5.235642     -0.276639     -0.294136
29
Coordinates from ORCA-job 2_Cu3_Cys2 E -6359.647073684070
  Cu      1.080246     -0.756838     -2.196565
  Cu      2.757276     -1.200896     -3.745718
  S      -0.428485     -0.290728     -0.680215
  Cu     -0.592427     -1.504198      1.098423
  S      -0.894244     -2.402175      2.995671
  C       0.178468     -1.538671      4.195309
  H      -0.437132     -1.063268      4.961424
  H       0.802822     -2.300049      4.674077
  H       1.644712     -0.916965      2.769280
  C       1.086445     -0.481278      3.606451
  C       0.289565      0.692138      3.067887
  O      -0.759066      1.101625      3.502922
  O       0.959418      1.294904      2.061630
  H       0.367351      1.977895      1.702478
  N       1.971820      0.063692      4.653964
  H       2.505573     -0.707726      5.045426
  H       2.651619      0.686166      4.224014
  C      -2.077052     -0.545204     -1.433001
  H      -2.144740      0.031265     -2.356349
  H      -2.225026     -1.600277     -1.669310
  H      -2.933552     -0.482908      0.531735
  C      -3.156028     -0.092043     -0.470323
  C      -3.193840      1.417762     -0.373628
  O      -2.715745      2.207051     -1.150941
  O      -3.913250      1.806112      0.706218
  H      -3.925977      2.777258      0.672801
  N      -4.484478     -0.499546     -0.958416
  H      -4.494543     -1.513003     -1.034697
  H      -5.179019     -0.263441     -0.254320
29
Coordinates from ORCA-job 2_Cu3_Cys2 E -6359.647640402771
  Cu      1.063825     -0.897312     -2.213581
  Cu      2.653794     -1.446533     -3.846568
  S      -0.425100     -0.355339     -0.719278
  Cu     -0.585653     -1.523936      1.076531
  S      -0.849038     -2.404139      2.990478
  C       0.186148     -1.511486      4.193995
  H      -0.439609     -1.047254      4.960147
  H       0.833941     -2.244913      4.687286
  H       1.649302     -0.865994      2.781246
  C       1.079920     -0.436403      3.614422
  C       0.283492      0.736812      3.073825
  O      -0.782350      1.129213      3.480806
  O       0.994045      1.370157      2.113734
  H       0.409571      2.058273      1.747597
  N       1.948445      0.114677      4.674379
  H       2.480752     -0.655325      5.071451
  H       2.628192      0.743533      4.253607
  C      -2.076975     -0.514065     -1.486614
  H      -2.124453      0.132703     -2.364245
  H      -2.240096     -1.546725     -1.801656
  H      -2.968778     -0.607247      0.459153
  C      -3.158489     -0.115894     -0.504896
  C      -3.163243      1.378294     -0.257885
  O      -2.615985      2.230046     -0.912953
  O      -3.933126      1.661992      0.820294
  H      -3.911913      2.631796      0.901663
  N      -4.486636     -0.434565     -1.059216
  H      -4.519362     -1.434596     -1.238761
  H      -5.189909     -0.249114     -0.348736
29
Coordinates from ORCA-job 2_Cu3_Cys2 E -6359.648852909879
  Cu      1.074719     -1.057884     -2.155126
  Cu      2.551637     -1.657813     -3.877724
  S      -0.347197     -0.432982     -0.653288
  Cu     -0.578355     -1.606220      1.120751
  S      -0.858537     -2.464892      3.042110
  C       0.144734     -1.465275      4.183835
  H      -0.495118     -0.979491      4.926467
  H       0.815666     -2.147364      4.718895
  H       1.577733     -0.862409      2.728187
  C       1.001629     -0.397251      3.537431
  C       0.179048      0.722920      2.928928
  O      -0.897643      1.118227      3.303649
  O       0.893155      1.312391      1.938966
  H       0.301170      1.969274      1.528555
  N       1.854815      0.244379      4.559339
  H       2.405831     -0.486339      5.002449
  H       2.515584      0.864244      4.096691
  C      -1.984821     -0.434207     -1.459692
  H      -1.979822      0.319013     -2.249840
  H      -2.166109     -1.415136     -1.904820
  H      -2.965166     -0.758602      0.417569
  C      -3.089941     -0.126752     -0.472314
  C      -3.057230      1.313088     -0.002246
  O      -2.427712      2.229332     -0.469017
  O      -3.898500      1.452350      1.054209
  H      -3.837339      2.390689      1.307964
  N      -4.401547     -0.299291     -1.125797
  H      -4.460541     -1.259109     -1.455353
  H      -5.129432     -0.188234     -0.424555
29
Coordinates from ORCA-job 2_Cu3_Cys2 E -6359.650615503476
  Cu      1.056256     -1.305317     -2.110913
  Cu      2.477770     -1.885042     -3.884436
  S      -0.264753     -0.608201     -0.591639
  Cu     -0.568593     -1.780471      1.153442
  S      -0.830356     -2.558855      3.110703
  C       0.087004     -1.385331      4.153952
  H      -0.591965     -0.876170      4.845419
  H       0.787021     -1.971540      4.759677
  H       1.492623     -0.823714      2.657304
  C       0.880606     -0.324183      3.418603
  C       0.005880      0.688799      2.702865
  O      -1.115437      1.025863      2.995602
  O       0.725767      1.253872      1.701604
  H       0.111658      1.825721      1.207431
  N       1.677465      0.464032      4.382302
  H       2.267125     -0.185712      4.895012
  H       2.301032      1.080294      3.866794
  C      -1.868085     -0.343813     -1.416726
  H      -1.769671      0.539967     -2.049292
  H      -2.094626     -1.210409     -2.041465
  H      -2.991120     -0.969610      0.296910
  C      -2.994025     -0.142688     -0.426228
  C      -2.850060      1.130387      0.384059
  O      -2.080717      2.041976      0.209477
  O      -3.779131      1.117005      1.374549
  H      -3.626360      1.928708      1.887679
  N      -4.271644     -0.005510     -1.154636
  H      -4.405858     -0.847822     -1.706847
  H      -5.027097      0.024423     -0.474981
29
Coordinates from ORCA-job 2_Cu3_Cys2 E -6359.651877646202
  Cu      1.051559     -1.407199     -2.149627
  Cu      2.507746     -1.946705     -3.875924
  S      -0.247004     -0.725737     -0.626078
  Cu     -0.534397     -1.885305      1.125931
  S      -0.716066     -2.672986      3.087173
  C       0.103453     -1.410740      4.119386
  H      -0.619937     -0.976768      4.815532
  H       0.853505     -1.932011      4.721255
  H       1.418868     -0.718528      2.583022
  C       0.796565     -0.286008      3.376408
  C      -0.185961      0.666497      2.717697
  O      -1.337502      0.862565      3.027635
  O       0.440369      1.337805      1.719587
  H      -0.239949      1.844866      1.245849
  N       1.561775      0.550752      4.321991
  H       2.227537     -0.050696      4.797277
  H       2.106720      1.226015      3.792299
  C      -1.845326     -0.395428     -1.432679
  H      -1.707789      0.481779     -2.064982
  H      -2.130955     -1.246793     -2.052176
  H      -2.975490     -0.979711      0.290483
  C      -2.931992     -0.136381     -0.411667
  C      -2.646743      1.087365      0.436569
  O      -1.815751      1.942341      0.248005
  O      -3.531275      1.133914      1.465496
  H      -3.265454      1.882527      2.020423
  N      -4.213724      0.128318     -1.095601
  H      -4.438490     -0.682069     -1.664904
  H      -4.943583      0.204977     -0.392157
29
Coordinates from ORCA-job 2_Cu3_Cys2 E -6359.643357738352
  Cu      0.979002     -1.418929     -2.333155
  Cu      2.460941     -2.140790     -3.914844
  S      -0.386556     -0.668071     -0.884231
  Cu     -0.577036     -1.743582      0.959456
  S      -0.680718     -2.537078      2.928474
  C       0.188965     -1.431369      4.127961
  H      -0.524849     -1.085483      4.875560
  H       0.916627     -2.040605      4.665576
  H       1.522110     -0.514625      2.681742
  C       0.941887     -0.240810      3.571321
  C      -0.043983      0.850688      3.202590
  O      -1.188436      0.934002      3.600624
  O       0.484965      1.763326      2.362960
  H      -0.226781      2.346202      2.051343
  N       1.783426      0.362046      4.614947
  H       2.453357     -0.331570      4.929114
  H       2.329804      1.109062      4.195741
  C      -2.021609     -0.507757     -1.679349
  H      -1.952344      0.311971     -2.391164
  H      -2.305687     -1.413248     -2.212425
  H      -2.999697     -0.971254      0.169102
  C      -3.056137     -0.205720     -0.615394
  C      -2.714835      1.098504      0.070587
  O      -1.945427      1.940531     -0.346197
  O      -3.464824      1.315849      1.171003
  H      -3.107819      2.083088      1.632549
  N      -4.402670     -0.073169     -1.193978
  H      -4.647701     -0.944353     -1.654046
  H      -5.073266      0.049796     -0.439643
29
Coordinates from ORCA-job 2_Cu3_Cys2 E -6359.652043436398
  Cu      0.984584     -1.514623     -2.298521
  Cu      2.396820     -2.280264     -3.980551
  S      -0.321483     -0.685040     -0.813276
  Cu     -0.568497     -1.757180      1.010951
  S      -0.712573     -2.518720      2.993119
  C       0.153439     -1.388513      4.142375
  H      -0.549930     -0.981719      4.873589
  H       0.882759     -1.981615      4.707371
  H       1.506990     -0.600634      2.677053
  C       0.916038     -0.236857      3.525515
  C      -0.005497      0.853706      3.021560
  O      -1.147744      1.056289      3.362018
  O       0.668533      1.674213      2.177356
  H       0.009380      2.293685      1.808778
  N       1.745912      0.417567      4.558758
  H       2.377955     -0.282146      4.940452
  H       2.327903      1.120968      4.109445
  C      -1.938744     -0.392818     -1.605097
  H      -1.842405      0.483787     -2.248553
  H      -2.211167     -1.253944     -2.219897
  H      -3.028397     -1.022928      0.120830
  C      -3.035740     -0.178215     -0.581698
  C      -2.823652      1.063712      0.256580
  O      -2.049787      1.970514      0.054987
  O      -3.680869      1.050580      1.307398
  H      -3.411838      1.789169      1.882778
  N      -4.331077     -0.003906     -1.260461
  H      -4.506570     -0.834105     -1.820309
  H      -5.063633      0.035692     -0.556330
29
Coordinates from ORCA-job 2_Cu3_Cys2 E -6359.654628653614
  Cu      1.040776     -1.500966     -2.181747
  Cu      2.424466     -2.275095     -3.881644
  S      -0.234168     -0.636787     -0.688769
  Cu     -0.593295     -1.686754      1.117890
  S      -0.834913     -2.497627      3.063591
  C       0.047900     -1.324886      4.135471
  H      -0.657177     -0.860864      4.830230
  H       0.765972     -1.901131      4.732393
  H       1.354886     -0.686224      2.575279
  C       0.804183     -0.233125      3.407892
  C      -0.103076      0.824458      2.809183
  O      -1.238672      1.084208      3.127182
  O       0.581440      1.505984      1.859680
  H      -0.072425      2.069331      1.404568
  N       1.681597      0.491206      4.355489
  H       2.319350     -0.185867      4.766294
  H       2.252423      1.151622      3.832969
  C      -1.830323     -0.312447     -1.508754
  H      -1.724181      0.600369     -2.098333
  H      -2.078464     -1.142574     -2.175405
  H      -2.998912     -1.084899      0.096919
  C      -2.955688     -0.166214     -0.504453
  C      -2.742565      0.955399      0.490317
  O      -1.956767      1.869510      0.428514
  O      -3.608720      0.785848      1.517250
  H      -3.309505      1.396808      2.215624
  N      -4.217123      0.139629     -1.202398
  H      -4.403102     -0.615906     -1.856139
  H      -4.973208      0.133648     -0.522870
29
Coordinates from ORCA-job 2_Cu3_Cys2 E -6359.656211071876
  Cu      1.043910     -1.538061     -2.253069
  Cu      2.341985     -2.397521     -3.976440
  S      -0.206382     -0.630170     -0.745959
  Cu     -0.561004     -1.689259      1.071330
  S      -0.753717     -2.546210      3.010180
  C       0.087270     -1.385343      4.133093
  H      -0.636150     -0.980459      4.845541
  H       0.834484     -1.953743      4.699567
  H       1.353634     -0.629562      2.589978
  C       0.788733     -0.236884      3.443924
  C      -0.198334      0.777877      2.899853
  O      -1.326708      0.967084      3.293419
  O       0.383992      1.508897      1.925454
  H      -0.326781      2.033854      1.508807
  N       1.636874      0.498971      4.406383
  H       2.317319     -0.154534      4.785534
  H       2.165536      1.207322      3.902578
  C      -1.822602     -0.313233     -1.538418
  H      -1.733779      0.586770     -2.150495
  H      -2.089585     -1.155136     -2.182102
  H      -2.908958     -1.016249      0.153740
  C      -2.914872     -0.136964     -0.504983
  C      -2.681783      1.061286      0.391912
  O      -1.951295      2.001847      0.182658
  O      -3.436902      0.939961      1.505116
  H      -3.106494      1.615715      2.127655
  N      -4.212794      0.082456     -1.164988
  H      -4.404065     -0.720120     -1.758945
  H      -4.940823      0.098064     -0.455101
29
Coordinates from ORCA-job 2_Cu3_Cys2 E -6359.654690315546
  Cu      0.914223     -1.759292     -2.324239
  Cu      2.121780     -2.762443     -4.033951
  S      -0.269781     -0.718307     -0.867363
  Cu     -0.580694     -1.698124      1.009471
  S      -0.691127     -2.458814      3.004539
  C       0.148205     -1.305481      4.158669
  H      -0.565716     -0.914643      4.887815
  H       0.897684     -1.870695      4.720608
  H       1.409391     -0.471795      2.631796
  C       0.869142     -0.136707      3.525852
  C      -0.136204      0.922930      3.120755
  O      -1.221920      1.082333      3.644002
  O       0.350167      1.738079      2.171902
  H      -0.384164      2.304351      1.855809
  N       1.750232      0.521872      4.506453
  H       2.434860     -0.158674      4.822787
  H       2.274412      1.254087      4.033598
  C      -1.854768     -0.272823     -1.671580
  H      -1.717470      0.692636     -2.161516
  H      -2.112239     -1.015477     -2.428817
  H      -3.063175     -1.157201     -0.152436
  C      -2.983284     -0.192262     -0.670042
  C      -2.692734      0.838369      0.401023
  O      -1.865485      1.725954      0.326692
  O      -3.495829      0.664810      1.461333
  H      -3.111255      1.164491      2.205631
  N      -4.236931      0.204408     -1.329992
  H      -4.452785     -0.479561     -2.050552
  H      -4.993823      0.154639     -0.652026
29
Coordinates from ORCA-job 2_Cu3_Cys2 E -6359.659395793906
  Cu      0.934689     -1.740511     -2.319597
  Cu      2.084222     -2.758427     -4.067346
  S      -0.209696     -0.679913     -0.831183
  Cu     -0.569770     -1.666586      1.023829
  S      -0.711838     -2.480206      2.988568
  C       0.106226     -1.320204      4.138669
  H      -0.620620     -0.926065      4.852330
  H       0.854563     -1.875504      4.714326
  H       1.388033     -0.509152      2.626642
  C       0.809345     -0.149035      3.485393
  C      -0.192454      0.865300      2.970172
  O      -1.315534      1.032652      3.399401
  O       0.348204      1.619071      1.997373
  H      -0.380665      2.122492      1.580433
  N       1.636986      0.572178      4.471958
  H       2.326386     -0.078989      4.837254
  H       2.157405      1.301646      3.990524
  C      -1.804187     -0.228241     -1.608924
  H      -1.681307      0.741724     -2.094186
  H      -2.069651     -0.969256     -2.366101
  H      -2.974756     -1.131695     -0.076028
  C      -2.921418     -0.163062     -0.590176
  C      -2.647512      0.869206      0.484612
  O      -1.878280      1.803826      0.403831
  O      -3.401079      0.622440      1.570589
  H      -3.005760      1.126019      2.308960
  N      -4.187880      0.215964     -1.237102
  H      -4.396384     -0.471403     -1.956351
  H      -4.936559      0.152387     -0.551648
29
Coordinates from ORCA-job 2_Cu3_Cys2 E -6359.659731950347
  Cu      0.897648     -1.767129     -2.341521
  Cu      2.050505     -2.811376     -4.066428
  S      -0.214695     -0.665255     -0.856967
  Cu     -0.562158     -1.621264      1.017183
  S      -0.703449     -2.464908      2.968708
  C       0.104688     -1.323091      4.140513
  H      -0.629445     -0.939243      4.852072
  H       0.852745     -1.882565      4.712638
  H       1.417132     -0.492050      2.667339
  C       0.804464     -0.139628      3.505022
  C      -0.194685      0.850542      2.940613
  O      -1.342452      0.990800      3.316099
  O       0.369943      1.602830      1.987627
  H      -0.352814      2.061909      1.510267
  N       1.585303      0.602236      4.514002
  H       2.277710     -0.031984      4.902555
  H       2.104477      1.341812      4.046902
  C      -1.814336     -0.200946     -1.620444
  H      -1.696798      0.779245     -2.085389
  H      -2.079438     -0.927609     -2.391558
  H      -2.967786     -1.133520     -0.093093
  C      -2.925855     -0.157901     -0.593995
  C      -2.636190      0.862520      0.487059
  O      -1.930216      1.842410      0.362285
  O      -3.281344      0.552539      1.619758
  H      -2.835811      1.040493      2.344710
  N      -4.200033      0.226838     -1.221917
  H      -4.415024     -0.450928     -1.948000
  H      -4.941376      0.151879     -0.529817
29
Coordinates from ORCA-job 2_Cu3_Cys2 E -6359.660722358339
  Cu      0.844641     -1.861168     -2.349574
  Cu      1.936634     -2.955523     -4.084796
  S      -0.202492     -0.696385     -0.867843
  Cu     -0.508980     -1.610126      1.037497
  S      -0.607627     -2.481516      2.984307
  C       0.167246     -1.329640      4.163494
  H      -0.574873     -0.983056      4.886839
  H       0.948119     -1.864270      4.716370
  H       1.416450     -0.447273      2.671892
  C       0.811811     -0.118247      3.524842
  C      -0.238225      0.832653      2.986098
  O      -1.363264      0.957027      3.433030
  O       0.247657      1.560244      1.978387
  H      -0.516398      1.971680      1.517173
  N       1.586285      0.646129      4.522448
  H       2.309330      0.035075      4.893007
  H       2.069086      1.407242      4.050605
  C      -1.789306     -0.171772     -1.623181
  H      -1.644992      0.823310     -2.048265
  H      -2.051397     -0.863524     -2.427298
  H      -3.003425     -1.127779     -0.155834
  C      -2.922066     -0.137813     -0.622058
  C      -2.635899      0.844989      0.495202
  O      -1.918086      1.821012      0.398112
  O      -3.295954      0.506786      1.605215
  H      -2.845545      0.958314      2.357391
  N      -4.167829      0.301813     -1.270759
  H      -4.380438     -0.346142     -2.024526
  H      -4.929753      0.224617     -0.601552
29
Coordinates from ORCA-job 2_Cu3_Cys2 E -6359.660800585513
  Cu      0.768551     -1.927842     -2.391829
  Cu      1.782492     -3.102786     -4.118535
  S      -0.210683     -0.684286     -0.920096
  Cu     -0.504677     -1.574676      1.002813
  S      -0.595217     -2.431376      2.954976
  C       0.182566     -1.306832      4.164374
  H      -0.555852     -0.971486      4.895996
  H       0.957955     -1.858315      4.707399
  H       1.467975     -0.390218      2.719880
  C       0.847120     -0.082891      3.569216
  C      -0.189785      0.888047      3.043666
  O      -1.316646      1.010162      3.490019
  O       0.304088      1.646142      2.061674
  H      -0.455150      2.093053      1.620572
  N       1.603657      0.647735      4.604243
  H       2.315954      0.022043      4.970641
  H       2.100251      1.418771      4.164075
  C      -1.797065     -0.144664     -1.663489
  H      -1.659922      0.868735     -2.044364
  H      -2.043918     -0.803763     -2.498848
  H      -3.025413     -1.174618     -0.256276
  C      -2.941529     -0.164655     -0.675435
  C      -2.663963      0.770301      0.484083
  O      -1.980665      1.775148      0.412300
  O      -3.291745      0.371434      1.592213
  H      -2.851067      0.819764      2.355382
  N      -4.178462      0.302122     -1.321939
  H      -4.377893     -0.311097     -2.107713
  H      -4.950247      0.192702     -0.668775
29
Coordinates from ORCA-job 2_Cu3_Cys2 E -6359.661353269500
  Cu      0.680472     -2.017236     -2.453961
  Cu      1.470715     -3.290022     -4.233756
  S      -0.151603     -0.661052     -0.977843
  Cu     -0.417658     -1.529188      0.960323
  S      -0.509237     -2.440614      2.884959
  C       0.193887     -1.314238      4.136106
  H      -0.568227     -1.025397      4.863280
  H       0.985315     -1.838194      4.683391
  H       1.479844     -0.308941      2.753384
  C       0.815642     -0.047186      3.585276
  C      -0.248484      0.882312      3.039123
  O      -1.392943      0.950177      3.452660
  O       0.240323      1.677658      2.082605
  H      -0.525840      2.108282      1.633444
  N       1.497467      0.697732      4.661422
  H       2.223503      0.097445      5.042765
  H       1.973838      1.498960      4.254141
  C      -1.757411     -0.120343     -1.675446
  H      -1.636204      0.902467     -2.035773
  H      -2.013203     -0.763344     -2.520495
  H      -2.970917     -1.188834     -0.281186
  C      -2.885919     -0.167186     -0.670049
  C      -2.581149      0.733117      0.511453
  O      -1.893553      1.737160      0.451969
  O      -3.183551      0.305718      1.622591
  H      -2.729496      0.738790      2.387871
  N      -4.126112      0.330038     -1.288123
  H      -4.336303     -0.255198     -2.092265
  H      -4.892487      0.203774     -0.631643
29
Coordinates from ORCA-job 2_Cu3_Cys2 E -6359.661230440287
  Cu      0.673272     -2.025357     -2.429613
  Cu      1.476859     -3.278221     -4.216575
  S      -0.160616     -0.683996     -0.947259
  Cu     -0.391018     -1.583069      0.981074
  S      -0.408642     -2.488575      2.908931
  C       0.278024     -1.352238      4.155911
  H      -0.489524     -1.086759      4.886618
  H       1.082322     -1.866122      4.694057
  H       1.535184     -0.307950      2.780073
  C       0.851134     -0.064706      3.601528
  C      -0.246524      0.805751      3.025923
  O      -1.397539      0.825252      3.427451
  O       0.210690      1.585957      2.047991
  H      -0.570112      1.951375      1.568159
  N       1.486006      0.720366      4.677938
  H       2.230043      0.155223      5.077874
  H       1.936131      1.536211      4.269795
  C      -1.756769     -0.115205     -1.649356
  H      -1.615561      0.905533     -2.008185
  H      -2.009880     -0.753995     -2.498324
  H      -2.998256     -1.142637     -0.242408
  C      -2.903435     -0.134825     -0.663493
  C      -2.632610      0.815042      0.488863
  O      -1.950169      1.820541      0.394784
  O      -3.265068      0.437585      1.595827
  H      -2.862968      0.931788      2.353564
  N      -4.129609      0.336473     -1.328916
  H      -4.317934     -0.277045     -2.117208
  H      -4.912719      0.230258     -0.688800
29
Coordinates from ORCA-job 2_Cu3_Cys2 E -6359.662092266335
  Cu      0.630095     -2.055323     -2.430200
  Cu      1.381507     -3.359962     -4.193347
  S      -0.151056     -0.663724     -0.963830
  Cu     -0.403394     -1.543959      0.972675
  S      -0.450470     -2.440290      2.901892
  C       0.249480     -1.317816      4.156531
  H      -0.516011     -1.049757      4.888773
  H       1.046206     -1.848838      4.689134
  H       1.512884     -0.289993      2.772258
  C       0.848025     -0.039618      3.606944
  C      -0.237917      0.863393      3.061741
  O      -1.374342      0.921902      3.500024
  O       0.211874      1.626356      2.064539
  H      -0.572724      2.008557      1.605347
  N       1.519262      0.717101      4.680770
  H       2.255682      0.129192      5.062243
  H       1.982830      1.525866      4.273137
  C      -1.740010     -0.079157     -1.667875
  H      -1.602081      0.955602     -1.985986
  H      -1.979071     -0.687745     -2.542970
  H      -2.985364     -1.175471     -0.319740
  C      -2.895919     -0.149299     -0.694658
  C      -2.635066      0.745103      0.501320
  O      -1.986849      1.776341      0.451657
  O      -3.227242      0.283399      1.600110
  H      -2.809022      0.732359      2.376289
  N      -4.121514      0.343689     -1.344889
  H      -4.301472     -0.235094     -2.161066
  H      -4.907613      0.203845     -0.714599
29
Coordinates from ORCA-job 2_Cu3_Cys2 E -6359.662410277559
  Cu      0.585949     -2.083264     -2.453000
  Cu      1.289243     -3.416193     -4.211829
  S      -0.134642     -0.650801     -0.994596
  Cu     -0.355563     -1.517329      0.950474
  S      -0.420353     -2.437297      2.865032
  C       0.246284     -1.318063      4.140836
  H      -0.533459     -1.065841      4.863096
  H       1.041329     -1.845019      4.679869
  H       1.521129     -0.260953      2.789929
  C       0.836908     -0.026780      3.613477
  C      -0.250467      0.867802      3.055425
  O      -1.394431      0.914528      3.473870
  O       0.208822      1.643836      2.070790
  H      -0.572068      2.031931      1.609431
  N       1.477609      0.727607      4.707554
  H       2.211266      0.143421      5.099657
  H       1.941735      1.544147      4.316671
  C      -1.734245     -0.072560     -1.678178
  H      -1.605859      0.964774     -1.991203
  H      -1.979958     -0.677378     -2.553928
  H      -2.963719     -1.183932     -0.326190
  C      -2.879062     -0.154234     -0.692434
  C      -2.602674      0.728046      0.508980
  O      -1.954849      1.759571      0.463258
  O      -3.178868      0.254774      1.611986
  H      -2.757906      0.704165      2.385973
  N      -4.111390      0.346122     -1.324642
  H      -4.298704     -0.223498     -2.145445
  H      -4.891347      0.199074     -0.688640
29
Coordinates from ORCA-job 2_Cu3_Cys2 E -6359.662793524439
  Cu      0.510002     -2.136779     -2.461039
  Cu      1.052122     -3.523040     -4.234792
  S      -0.102837     -0.638738     -1.014004
  Cu     -0.310704     -1.515971      0.931926
  S      -0.358045     -2.437287      2.844318
  C       0.274815     -1.314917      4.136034
  H      -0.516790     -1.089707      4.854319
  H       1.075325     -1.834956      4.673660
  H       1.541693     -0.212170      2.814652
  C       0.839945     -0.004265      3.630367
  C      -0.265341      0.863961      3.067105
  O      -1.409957      0.885362      3.487296
  O       0.175661      1.647446      2.081552
  H      -0.614834      2.021370      1.621864
  N       1.444690      0.753485      4.742125
  H       2.182998      0.181048      5.142781
  H       1.899033      1.583156      4.367720
  C      -1.701548     -0.035668     -1.680446
  H      -1.573863      1.013379     -1.952417
  H      -1.939427     -0.606742     -2.580626
  H      -2.932140     -1.191955     -0.365080
  C      -2.853786     -0.153828     -0.707682
  C      -2.594136      0.708668      0.511436
  O      -1.965650      1.753564      0.481134
  O      -3.155958      0.204423      1.605858
  H      -2.750291      0.655421      2.388415
  N      -4.084408      0.348081     -1.341969
  H      -4.255293     -0.203680     -2.178495
  H      -4.870565      0.176994     -0.719790
29
Coordinates from ORCA-job 2_Cu3_Cys2 E -6359.663225346266
  Cu      0.384525     -2.200179     -2.432508
  Cu      0.708070     -3.654015     -4.195006
  S      -0.063041     -0.614252     -1.021223
  Cu     -0.249077     -1.517811      0.919438
  S      -0.266133     -2.440448      2.824742
  C       0.331201     -1.311988      4.132830
  H      -0.475330     -1.133215      4.847048
  H       1.141321     -1.828818      4.658187
  H       1.570464     -0.146474      2.839331
  C       0.855754      0.022949      3.652492
  C      -0.281100      0.852875      3.095152
  O      -1.423262      0.831628      3.522000
  O       0.124655      1.647779      2.105445
  H      -0.682830      2.000150      1.656675
  N       1.423850      0.781932      4.782095
  H       2.169158      0.223017      5.188515
  H       1.863446      1.627558      4.426574
  C      -1.652555      0.023533     -1.681101
  H      -1.523977      1.086682     -1.889953
  H      -1.867699     -0.496532     -2.617148
  H      -2.888329     -1.197318     -0.426141
  C      -2.824890     -0.149752     -0.741507
  C      -2.606620      0.692876      0.498938
  O      -2.020278      1.762943      0.491150
  O      -3.146781      0.144022      1.580081
  H      -2.775303      0.604967      2.373520
  N      -4.050411      0.341183     -1.393979
  H      -4.184888     -0.190759     -2.249706
  H      -4.849231      0.134122     -0.799717
29
Coordinates from ORCA-job 2_Cu3_Cys2 E -6359.663224732851
  Cu      0.298357     -2.225877     -2.427912
  Cu      0.479678     -3.703229     -4.195785
  S      -0.025529     -0.590924     -1.036873
  Cu     -0.190362     -1.506437      0.901685
  S      -0.232935     -2.432967      2.803102
  C       0.329782     -1.297627      4.123399
  H      -0.493406     -1.128642      4.820645
  H       1.134443     -1.808744      4.662668
  H       1.590653     -0.116968      2.864903
  C       0.850956      0.043315      3.657250
  C      -0.280194      0.858265      3.067993
  O      -1.432111      0.827629      3.467121
  O       0.140967      1.648898      2.081417
  H      -0.658934      1.982070      1.605656
  N       1.377811      0.808323      4.802432
  H       2.110997      0.253554      5.235766
  H       1.825310      1.655013      4.459552
  C      -1.619315      0.063717     -1.672997
  H      -1.497800      1.134978     -1.840341
  H      -1.828665     -0.420811     -2.629321
  H      -2.842744     -1.211865     -0.461105
  C      -2.793503     -0.154401     -0.744050
  C      -2.592972      0.652852      0.522619
  O      -2.027467      1.733872      0.550715
  O      -3.126354      0.060932      1.584543
  H      -2.765820      0.503919      2.393413
  N      -4.023383      0.337496     -1.386817
  H      -4.144914     -0.169108     -2.259746
  H      -4.821836      0.099421     -0.803709
29
Coordinates from ORCA-job 2_Cu3_Cys2 E -6359.663483633544
  Cu      0.321920     -2.212161     -2.406369
  Cu      0.545008     -3.686958     -4.176482
  S      -0.030202     -0.578198     -1.022330
  Cu     -0.223479     -1.506521      0.905842
  S      -0.256042     -2.437266      2.805422
  C       0.328814     -1.306926      4.120881
  H      -0.484561     -1.137261      4.829274
  H       1.140302     -1.820007      4.647887
  H       1.571673     -0.128212      2.841336
  C       0.851417      0.032358      3.651332
  C      -0.283284      0.866329      3.095657
  O      -1.429026      0.838714      3.510573
  O       0.131867      1.676742      2.120415
  H      -0.671706      2.032552      1.669970
  N       1.412291      0.783662      4.789335
  H       2.147399      0.216975      5.203558
  H       1.862251      1.627008      4.441489
  C      -1.624879      0.051285     -1.682138
  H      -1.509798      1.119150     -1.874102
  H      -1.828974     -0.456214     -2.627699
  H      -2.839699     -1.206753     -0.444334
  C      -2.799173     -0.154947     -0.749250
  C      -2.604924      0.677182      0.502262
  O      -2.033796      1.754875      0.519195
  O      -3.151274      0.106510      1.571777
  H      -2.786144      0.557854      2.372443
  N      -4.033337      0.314630     -1.399586
  H      -4.153351     -0.211595     -2.261026
  H      -4.828581      0.083849     -0.809108
29
Coordinates from ORCA-job 2_Cu3_Cys2 E -6359.663584703681
  Cu      0.315704     -2.214394     -2.384892
  Cu      0.496483     -3.699731     -4.152597
  S      -0.024249     -0.570692     -1.015261
  Cu     -0.210021     -1.505092      0.908004
  S      -0.242443     -2.443231      2.803456
  C       0.337943     -1.311552      4.119943
  H      -0.479155     -1.146932      4.824864
  H       1.150780     -1.821723      4.647747
  H       1.567703     -0.125164      2.835270
  C       0.850962      0.030872      3.649205
  C      -0.290220      0.860575      3.099430
  O      -1.434712      0.824329      3.516479
  O       0.118102      1.677618      2.126820
  H      -0.688333      2.031039      1.680894
  N       1.414239      0.785133      4.784220
  H       2.151509      0.220678      5.197519
  H       1.861212      1.628950      4.433831
  C      -1.616306      0.061082     -1.680800
  H      -1.500825      1.130172     -1.865823
  H      -1.815060     -0.440599     -2.630628
  H      -2.828347     -1.203895     -0.448557
  C      -2.793719     -0.152000     -0.753925
  C      -2.609034      0.681996      0.497922
  O      -2.041784      1.761366      0.517544
  O      -3.159185      0.110345      1.565317
  H      -2.794273      0.560510      2.366172
  N      -4.028460      0.309821     -1.408180
  H      -4.144023     -0.218865     -2.268697
  H      -4.823776      0.076039     -0.819055
29
Coordinates from ORCA-job 2_Cu3_Cys2 E -6359.663809588234
  Cu      0.270793     -2.219811     -2.330988
  Cu      0.300918     -3.739929     -4.087118
  S       0.012259     -0.527104     -1.008177
  Cu     -0.177817     -1.493021      0.897252
  S      -0.223499     -2.446053      2.785072
  C       0.347003     -1.315249      4.108777
  H      -0.479745     -1.161650      4.804532
  H       1.160209     -1.821825      4.638695
  H       1.557978     -0.111359      2.821913
  C       0.845867      0.033330      3.642116
  C      -0.304831      0.858332      3.104718
  O      -1.449128      0.801430      3.518463
  O       0.094999      1.697748      2.147153
  H      -0.715158      2.048040      1.708199
  N       1.410953      0.789002      4.775738
  H       2.147837      0.225188      5.190179
  H       1.857077      1.632586      4.424154
  C      -1.582386      0.096901     -1.678250
  H      -1.478763      1.171075     -1.839485
  H      -1.765086     -0.385819     -2.641040
  H      -2.771613     -1.208746     -0.468964
  C      -2.762378     -0.153619     -0.764835
  C      -2.607028      0.673427      0.495977
  O      -2.056745      1.760456      0.533867
  O      -3.168785      0.087925      1.551485
  H      -2.816510      0.536656      2.357885
  N      -4.003943      0.283507     -1.421758
  H      -4.106311     -0.245371     -2.283826
  H      -4.795455      0.030611     -0.835513
29
Coordinates from ORCA-job 2_Cu3_Cys2 E -6359.664011656069
  Cu      0.236006     -2.212536     -2.263815
  Cu      0.225319     -3.813397     -3.956388
  S       0.034678     -0.470201     -1.004840
  Cu     -0.145357     -1.470336      0.879713
  S      -0.218998     -2.443309      2.758663
  C       0.352047     -1.323824      4.093832
  H      -0.484035     -1.176751      4.779534
  H       1.162175     -1.833092      4.624275
  H       1.549125     -0.111646      2.801818
  C       0.844357      0.027069      3.629634
  C      -0.311073      0.852035      3.102469
  O      -1.457465      0.778037      3.506105
  O       0.086663      1.711988      2.161690
  H      -0.723913      2.054391      1.720826
  N       1.416309      0.785854      4.758449
  H       2.153503      0.222792      5.172840
  H       1.861597      1.627409      4.401519
  C      -1.565220      0.140384     -1.677620
  H      -1.474410      1.218454     -1.818822
  H      -1.734207     -0.326029     -2.650874
  H      -2.728838     -1.205345     -0.491121
  C      -2.744247     -0.146810     -0.774345
  C      -2.614159      0.667459      0.498235
  O      -2.081711      1.761663      0.557450
  O      -3.188264      0.065176      1.539718
  H      -2.844806      0.506399      2.352920
  N      -3.993950      0.269641     -1.428194
  H      -4.091694     -0.262435     -2.288856
  H      -4.778720      0.003615     -0.838591
29
Coordinates from ORCA-job 2_Cu3_Cys2 E -6359.664244600187
  Cu      0.231473     -2.206458     -2.221208
  Cu      0.152355     -3.870989     -3.858147
  S       0.055572     -0.421357     -1.013757
  Cu     -0.136069     -1.447624      0.857059
  S      -0.223877     -2.434565      2.731132
  C       0.355840     -1.332230      4.077625
  H      -0.478126     -1.194993      4.768047
  H       1.169372     -1.844655      4.599229
  H       1.540795     -0.103932      2.789699
  C       0.841568      0.024363      3.624014
  C      -0.319361      0.850809      3.111965
  O      -1.464582      0.765336      3.517285
  O       0.071529      1.729253      2.185481
  H      -0.742903      2.071627      1.750652
  N       1.418274      0.776888      4.754886
  H       2.161494      0.214514      5.159470
  H       1.856806      1.623120      4.400627
  C      -1.555204      0.164389     -1.684016
  H      -1.480933      1.244478     -1.819569
  H      -1.715870     -0.298784     -2.660196
  H      -2.698870     -1.205878     -0.506224
  C      -2.729481     -0.145881     -0.782821
  C      -2.611415      0.663930      0.493440
  O      -2.084857      1.760854      0.558084
  O      -3.187477      0.055443      1.529945
  H      -2.850955      0.498457      2.345597
  N      -3.985641      0.256517     -1.433544
  H      -4.083709     -0.282292     -2.290114
  H      -4.765037     -0.013683     -0.838421
29
Coordinates from ORCA-job 2_Cu3_Cys2 E -6359.664554029721
  Cu      0.287725     -2.194784     -2.169731
  Cu      0.340368     -4.024020     -3.631208
  S       0.043149     -0.349425     -1.058827
  Cu     -0.136410     -1.390832      0.805029
  S      -0.247158     -2.412013      2.667628
  C       0.363720     -1.363365      4.040009
  H      -0.449686     -1.243996      4.758701
  H       1.189715     -1.884439      4.532847
  H       1.536167     -0.102518      2.773571
  C       0.845655      0.005407      3.618156
  C      -0.318499      0.844737      3.136814
  O      -1.462654      0.747508      3.545919
  O       0.067563      1.752781      2.237194
  H      -0.750659      2.102423      1.809542
  N       1.433268      0.731324      4.760767
  H       2.194212      0.168774      5.131723
  H       1.853075      1.593327      4.421255
  C      -1.591770      0.180208     -1.714302
  H      -1.540481      1.258045     -1.876529
  H      -1.756120     -0.309770     -2.676564
  H      -2.715454     -1.186511     -0.510549
  C      -2.749990     -0.127885     -0.792489
  C      -2.621592      0.691035      0.475968
  O      -2.081110      1.783282      0.524787
  O      -3.195985      0.096073      1.518439
  H      -2.858517      0.545278      2.332419
  N      -4.016449      0.266487     -1.431710
  H      -4.135777     -0.298166     -2.269106
  H      -4.785596      0.017689     -0.813532
29
Coordinates from ORCA-job 2_Cu3_Cys2 E -6359.664877747774
  Cu      0.276734     -2.188626     -2.151908
  Cu      0.283947     -4.115874     -3.474790
  S       0.073321     -0.289765     -1.113857
  Cu     -0.096786     -1.361204      0.740376
  S      -0.246908     -2.397375      2.595621
  C       0.346646     -1.370859      3.990336
  H      -0.466511     -1.264763      4.711950
  H       1.171125     -1.896301      4.483106
  H       1.532063     -0.081106      2.768367
  C       0.826683      0.008780      3.602534
  C      -0.334463      0.850389      3.118359
  O      -1.483546      0.745326      3.513173
  O       0.062062      1.773232      2.237202
  H      -0.752686      2.127654      1.802763
  N       1.391916      0.713871      4.768628
  H       2.158014      0.152507      5.131984
  H       1.804194      1.588764      4.452575
  C      -1.588098      0.209550     -1.720903
  H      -1.560900      1.289394     -1.877216
  H      -1.764256     -0.279397     -2.681650
  H      -2.670898     -1.184927     -0.508156
  C      -2.722981     -0.124030     -0.779254
  C      -2.590137      0.684826      0.493953
  O      -2.052758      1.779431      0.545814
  O      -3.144403      0.072050      1.534838
  H      -2.809618      0.516437      2.353283
  N      -4.006227      0.255249     -1.397451
  H      -4.133853     -0.316048     -2.229392
  H      -4.760968     -0.000532     -0.764059
29
Coordinates from ORCA-job 2_Cu3_Cys2 E -6359.665400462794
  Cu      0.249018     -2.209591     -2.080031
  Cu      0.187598     -4.218739     -3.263653
  S       0.081272     -0.261248     -1.138497
  Cu     -0.075728     -1.329555      0.717766
  S      -0.218987     -2.381536      2.561046
  C       0.385504     -1.378347      3.966563
  H      -0.411964     -1.306346      4.709676
  H       1.228172     -1.900293      4.432395
  H       1.541825     -0.045216      2.764774
  C       0.839498      0.017160      3.603862
  C      -0.341751      0.842343      3.140777
  O      -1.482695      0.714837      3.552201
  O       0.023590      1.769364      2.251760
  H      -0.802658      2.104898      1.824885
  N       1.398902      0.706290      4.781881
  H       2.179693      0.152767      5.125028
  H       1.790889      1.596748      4.483960
  C      -1.580593      0.249080     -1.734168
  H      -1.556418      1.332200     -1.865541
  H      -1.751855     -0.219295     -2.705790
  H      -2.667109     -1.173654     -0.557056
  C      -2.720570     -0.107706     -0.806923
  C      -2.603872      0.675049      0.484867
  O      -2.081191      1.775902      0.562584
  O      -3.159407      0.035579      1.506385
  H      -2.834829      0.457470      2.340933
  N      -3.999910      0.275815     -1.431726
  H      -4.116411     -0.284903     -2.272314
  H      -4.759302      0.007580     -0.809420
29
Coordinates from ORCA-job 2_Cu3_Cys2 E -6359.665884023258
  Cu      0.232477     -2.201162     -1.999928
  Cu      0.108175     -4.277869     -3.033981
  S       0.089376     -0.211108     -1.162994
  Cu     -0.042124     -1.290220      0.688258
  S      -0.200122     -2.369418      2.509038
  C       0.404837     -1.390415      3.929047
  H      -0.389432     -1.339968      4.677328
  H       1.253669     -1.916761      4.379292
  H       1.553656     -0.021612      2.762055
  C       0.843032      0.017682      3.595546
  C      -0.345199      0.835391      3.134806
  O      -1.485092      0.695894      3.540709
  O       0.014445      1.765336      2.246446
  H      -0.809263      2.089470      1.812267
  N       1.385842      0.687136      4.792450
  H       2.168964      0.133939      5.129693
  H       1.770933      1.588283      4.519357
  C      -1.579254      0.288846     -1.747137
  H      -1.570178      1.373208     -1.869556
  H      -1.750076     -0.174559     -2.721083
  H      -2.635131     -1.159276     -0.575362
  C      -2.710163     -0.092996     -0.818109
  C      -2.606145      0.678278      0.482722
  O      -2.105950      1.786979      0.579918
  O      -3.161025      0.018660      1.492719
  H      -2.842908      0.424555      2.335150
  N      -3.998360      0.268114     -1.437376
  H      -4.104002     -0.290993     -2.280148
  H      -4.750271     -0.018757     -0.814906
29
Coordinates from ORCA-job 2_Cu3_Cys2 E -6359.665963259916
  Cu      0.150465     -2.195982     -1.880822
  Cu      0.046705     -4.356297     -2.733449
  S       0.107939     -0.144783     -1.192553
  Cu     -0.030822     -1.246622      0.649995
  S      -0.185976     -2.359661      2.446422
  C       0.432204     -1.411098      3.880528
  H      -0.348728     -1.401941      4.644722
  H       1.302283     -1.930864      4.295313
  H       1.543509      0.010472      2.739198
  C       0.839883      0.013876      3.579714
  C      -0.366183      0.823460      3.150882
  O      -1.498992      0.658463      3.565823
  O      -0.029775      1.777595      2.279009
  H      -0.861946      2.102378      1.862741
  N       1.382905      0.658383      4.789905
  H       2.173402      0.104749      5.108353
  H       1.756128      1.570931      4.539744
  C      -1.571176      0.332286     -1.767016
  H      -1.582306      1.417997     -1.876735
  H      -1.735987     -0.122610     -2.746062
  H      -2.589801     -1.146346     -0.600053
  C      -2.691387     -0.081306     -0.838717
  C      -2.598546      0.686587      0.464595
  O      -2.112204      1.800414      0.568442
  O      -3.148827      0.017364      1.471850
  H      -2.833544      0.421544      2.315136
  N      -3.989464      0.253929     -1.451243
  H      -4.086855     -0.306737     -2.293941
  H      -4.732194     -0.049526     -0.825559
29
Coordinates from ORCA-job 2_Cu3_Cys2 E -6359.666120822951
  Cu      0.128834     -2.205599     -1.875630
  Cu     -0.058674     -4.329731     -2.778620
  S       0.104908     -0.158852     -1.179633
  Cu     -0.021246     -1.268138      0.664910
  S      -0.153617     -2.378120      2.461212
  C       0.450177     -1.403592      3.883421
  H      -0.333737     -1.389201      4.644618
  H       1.322283     -1.917296      4.302700
  H       1.579199      0.021012      2.765241
  C       0.848122      0.024394      3.582107
  C      -0.348967      0.824252      3.110544
  O      -1.487421      0.674254      3.513623
  O       0.009115      1.757409      2.225460
  H      -0.811536      2.090157      1.793115
  N       1.350542      0.674594      4.806303
  H       2.125974      0.118527      5.156103
  H       1.735529      1.585398      4.568454
  C      -1.566318      0.350518     -1.748584
  H      -1.573948      1.438839     -1.833071
  H      -1.730673     -0.080992     -2.738678
  H      -2.577280     -1.148710     -0.603274
  C      -2.690184     -0.082958     -0.833908
  C      -2.613705      0.674051      0.476431
  O      -2.134209      1.787535      0.599850
  O      -3.168767     -0.011772      1.472466
  H      -2.864724      0.386828      2.321840
  N      -3.986714      0.244780     -1.451492
  H      -4.060744     -0.289292     -2.313585
  H      -4.731507     -0.091640     -0.845701
29
Coordinates from ORCA-job 2_Cu3_Cys2 E -6359.666172536337
  Cu      0.149250     -2.224940     -1.900351
  Cu     -0.129961     -4.317809     -2.851756
  S       0.098902     -0.180226     -1.183528
  Cu     -0.027106     -1.265923      0.678115
  S      -0.136921     -2.374855      2.479376
  C       0.467437     -1.400433      3.902044
  H      -0.309769     -1.391002      4.670120
  H       1.346710     -1.907076      4.315730
  H       1.584798      0.032351      2.783151
  C       0.855678      0.030306      3.601578
  C      -0.347016      0.822488      3.134842
  O      -1.483507      0.666173      3.544492
  O       0.000275      1.755753      2.245357
  H      -0.827715      2.084337      1.820144
  N       1.355620      0.683205      4.825342
  H       2.135687      0.132142      5.173615
  H       1.734838      1.596264      4.585973
  C      -1.567182      0.336718     -1.757169
  H      -1.568410      1.425049     -1.840942
  H      -1.729125     -0.093138     -2.748525
  H      -2.594978     -1.155489     -0.615378
  C      -2.698249     -0.089069     -0.846911
  C      -2.620611      0.672334      0.460403
  O      -2.146931      1.790591      0.571299
  O      -3.157023     -0.013456      1.465871
  H      -2.852476      0.399352      2.310074
  N      -3.989365      0.249020     -1.470744
  H      -4.062227     -0.281107     -2.335525
  H      -4.739912     -0.084906     -0.870472
29
Coordinates from ORCA-job 2_Cu3_Cys2 E -6359.666223353052
  Cu      0.139899     -2.220408     -1.884535
  Cu     -0.146061     -4.338985     -2.785180
  S       0.112256     -0.161500     -1.200191
  Cu     -0.016854     -1.253684      0.657187
  S      -0.142465     -2.365923      2.458201
  C       0.459589     -1.402456      3.890064
  H      -0.319006     -1.395379      4.656704
  H       1.337646     -1.908595      4.305981
  H       1.572066      0.035376      2.771348
  C       0.847811      0.029096      3.594047
  C      -0.358667      0.819549      3.136573
  O      -1.495667      0.650298      3.541703
  O      -0.019065      1.763498      2.255021
  H      -0.850752      2.082595      1.829293
  N       1.350689      0.683305      4.816239
  H       2.134041      0.135187      5.161705
  H       1.726572      1.596847      4.573268
  C      -1.560960      0.344385     -1.762418
  H      -1.566036      1.432702     -1.842593
  H      -1.725801     -0.082016     -2.754597
  H      -2.581734     -1.156785     -0.625388
  C      -2.685988     -0.088417     -0.847193
  C      -2.601829      0.662800      0.466128
  O      -2.125346      1.780190      0.581463
  O      -3.137243     -0.027012      1.468786
  H      -2.829937      0.382168      2.314737
  N      -3.982011      0.254140     -1.458999
  H      -4.067283     -0.278236     -2.321312
  H      -4.727152     -0.076084     -0.849818
29
Coordinates from ORCA-job 2_Cu3_Cys2 E -6359.666303287021
  Cu      0.111131     -2.225364     -1.875445
  Cu     -0.148616     -4.330908     -2.801600
  S       0.112539     -0.170514     -1.189026
  Cu     -0.024728     -1.260798      0.667966
  S      -0.140391     -2.371832      2.465532
  C       0.461151     -1.399168      3.891414
  H      -0.319154     -1.390166      4.656319
  H       1.339560     -1.904255      4.307416
  H       1.571840      0.036724      2.766383
  C       0.847860      0.031786      3.589381
  C      -0.359530      0.820914      3.130438
  O      -1.495981      0.653038      3.535503
  O      -0.019906      1.762662      2.246336
  H      -0.850573      2.082314      1.821988
  N       1.351187      0.689171      4.809824
  H       2.127568      0.136272      5.162720
  H       1.735265      1.598435      4.564524
  C      -1.554958      0.348145     -1.756003
  H      -1.555735      1.436960     -1.829370
  H      -1.718409     -0.071301     -2.751363
  H      -2.576126     -1.156910     -0.625969
  C      -2.683195     -0.088466     -0.846091
  C      -2.602843      0.659018      0.470005
  O      -2.133893      1.778098      0.592761
  O      -3.139779     -0.036246      1.469506
  H      -2.834608      0.371145      2.315781
  N      -3.978102      0.253607     -1.458877
  H      -4.056969     -0.269135     -2.327466
  H      -4.723896     -0.086569     -0.856363
29
Coordinates from ORCA-job 2_Cu3_Cys2 E -6359.666351750102
  Cu      0.089152     -2.239926     -1.854904
  Cu     -0.197843     -4.345463     -2.770511
  S       0.112190     -0.176753     -1.194549
  Cu     -0.016710     -1.255570      0.669221
  S      -0.117933     -2.372984      2.463420
  C       0.479675     -1.401075      3.890529
  H      -0.297311     -1.400593      4.659005
  H       1.365135     -1.897553      4.302054
  H       1.578236      0.048498      2.770974
  C       0.851961      0.034502      3.591853
  C      -0.361270      0.813710      3.130961
  O      -1.497810      0.633312      3.530482
  O      -0.026140      1.765807      2.256543
  H      -0.858604      2.084013      1.833476
  N       1.345109      0.695072      4.814911
  H       2.120366      0.144843      5.174469
  H       1.728112      1.605109      4.571037
  C      -1.551917      0.355273     -1.757783
  H      -1.547922      1.444960     -1.818891
  H      -1.714493     -0.052231     -2.758280
  H      -2.578250     -1.157005     -0.642598
  C      -2.683731     -0.086896     -0.855359
  C      -2.606987      0.653100      0.465220
  O      -2.142495      1.773483      0.593413
  O      -3.140175     -0.049835      1.460902
  H      -2.837782      0.356564      2.308993
  N      -3.975964      0.261425     -1.470112
  H      -4.051631     -0.252578     -2.344232
  H      -4.724260     -0.084555     -0.874021
29
Coordinates from ORCA-job 2_Cu3_Cys2 E -6359.666473635369
  Cu      0.044668     -2.279214     -1.838093
  Cu     -0.306527     -4.359532     -2.780908
  S       0.112759     -0.205597     -1.202601
  Cu     -0.006314     -1.249884      0.679608
  S      -0.072859     -2.374517      2.471678
  C       0.510071     -1.397456      3.899746
  H      -0.262443     -1.407518      4.672798
  H       1.406723     -1.875548      4.309463
  H       1.583982      0.071464      2.781342
  C       0.856015      0.044765      3.600252
  C      -0.368446      0.803784      3.135540
  O      -1.504911      0.600743      3.525154
  O      -0.044151      1.769737      2.272047
  H      -0.880957      2.074708      1.845994
  N       1.333353      0.718346      4.822919
  H       2.104113      0.172649      5.198959
  H       1.718250      1.626164      4.573869
  C      -1.541320      0.360968     -1.757848
  H      -1.522623      1.451710     -1.794815
  H      -1.703673     -0.022138     -2.768131
  H      -2.588194     -1.161142     -0.676359
  C      -2.683079     -0.086638     -0.870569
  C      -2.608287      0.633545      0.461104
  O      -2.157190      1.758453      0.600777
  O      -3.123642     -0.090582      1.450226
  H      -2.823306      0.312659      2.301725
  N      -3.967705      0.284724     -1.487588
  H      -4.040360     -0.207977     -2.374251
  H      -4.723237     -0.070021     -0.905815
29
Coordinates from ORCA-job 2_Cu3_Cys2 E -6359.666521992009
  Cu      0.003295     -2.307666     -1.819541
  Cu     -0.402312     -4.376659     -2.762725
  S       0.118255     -0.223095     -1.214227
  Cu      0.005449     -1.238188      0.680903
  S      -0.038017     -2.370802      2.469386
  C       0.532619     -1.394298      3.901837
  H      -0.236144     -1.418265      4.678389
  H       1.437795     -1.859400      4.308046
  H       1.582283      0.093166      2.785440
  C       0.857130      0.053710      3.606243
  C      -0.378720      0.797257      3.146918
  O      -1.512722      0.573360      3.532563
  O      -0.068749      1.775810      2.291817
  H      -0.910878      2.070537      1.868043
  N       1.328101      0.732572      4.828652
  H       2.099311      0.190729      5.209296
  H       1.710433      1.640922      4.577730
  C      -1.530163      0.366602     -1.761009
  H      -1.503047      1.457546     -1.779865
  H      -1.692343      0.001346     -2.777994
  H      -2.591798     -1.163970     -0.704913
  C      -2.678607     -0.086383     -0.884483
  C      -2.604780      0.617289      0.456121
  O      -2.166048      1.746238      0.605377
  O      -3.104698     -0.124055      1.439623
  H      -2.809651      0.275770      2.295144
  N      -3.957505      0.301674     -1.503581
  H      -4.028997     -0.179962     -2.396421
  H      -4.718784     -0.055132     -0.930542
29
Coordinates from ORCA-job 2_Cu3_Cys2 E -6359.666546321067
  Cu     -0.028533     -2.322623     -1.806065
  Cu     -0.493350     -4.383117     -2.743038
  S       0.127259     -0.228678     -1.226529
  Cu      0.021713     -1.219811      0.676382
  S      -0.014050     -2.362945      2.460010
  C       0.542055     -1.390411      3.900310
  H      -0.228539     -1.425094      4.674648
  H       1.449794     -1.849702      4.307489
  H       1.579284      0.108858      2.789975
  C       0.854084      0.061236      3.610322
  C      -0.387780      0.794516      3.150751
  O      -1.520895      0.557670      3.530803
  O      -0.084763      1.778734      2.299293
  H      -0.927853      2.063811      1.871059
  N       1.318594      0.742784      4.833736
  H       2.090086      0.203747      5.217660
  H       1.698721      1.652147      4.583339
  C      -1.520238      0.373691     -1.763282
  H      -1.491736      1.464617     -1.769002
  H      -1.683399      0.020651     -2.784471
  H      -2.585940     -1.167157     -0.724373
  C      -2.669932     -0.087501     -0.891817
  C      -2.594775      0.601763      0.456210
  O      -2.170446      1.735260      0.613699
  O      -3.075567     -0.156998      1.435258
  H      -2.784784      0.238117      2.294370
  N      -3.947116      0.309271     -1.509292
  H      -4.020753     -0.170066     -2.403232
  H      -4.710430     -0.046115     -0.937989
29
Coordinates from ORCA-job 2_Cu3_Cys2 E -6359.666577688957
  Cu     -0.091671     -2.350878     -1.798908
  Cu     -0.629438     -4.389176     -2.750951
  S       0.138063     -0.255240     -1.230419
  Cu      0.036037     -1.215050      0.681144
  S       0.030064     -2.359807      2.465685
  C       0.569331     -1.379688      3.908643
  H      -0.201873     -1.431876      4.681290
  H       1.482267     -1.829378      4.314553
  H       1.580259      0.134302      2.796651
  C       0.859843      0.075999      3.620584
  C      -0.395694      0.788926      3.166638
  O      -1.523512      0.530270      3.548055
  O      -0.112299      1.778825      2.314951
  H      -0.960828      2.050007      1.888135
  N       1.320019      0.763570      4.841922
  H       2.099746      0.234249      5.222420
  H       1.687108      1.677900      4.590559
  C      -1.500662      0.380270     -1.758847
  H      -1.462876      1.470535     -1.739311
  H      -1.659785      0.051660     -2.788778
  H      -2.588835     -1.171401     -0.755640
  C      -2.662852     -0.088853     -0.907220
  C      -2.597690      0.579808      0.451668
  O      -2.188925      1.716893      0.625749
  O      -3.067398     -0.200004      1.418485
  H      -2.789646      0.184908      2.286272
  N      -3.928718      0.325232     -1.537032
  H      -3.996253     -0.151067     -2.433112
  H      -4.703072     -0.024278     -0.976963
29
Coordinates from ORCA-job 2_Cu3_Cys2 E -6359.666624834672
  Cu     -0.076243     -2.337586     -1.809449
  Cu     -0.604636     -4.382927     -2.752497
  S       0.137962     -0.244123     -1.232699
  Cu      0.037773     -1.210972      0.674846
  S       0.020628     -2.358493      2.457041
  C       0.559244     -1.381943      3.903313
  H      -0.216828     -1.433161      4.670993
  H       1.467868     -1.839065      4.310487
  H       1.582428      0.130021      2.800141
  C       0.857562      0.073183      3.620300
  C      -0.392788      0.792809      3.161681
  O      -1.522731      0.543032      3.541690
  O      -0.100985      1.777840      2.307067
  H      -0.945984      2.055240      1.878577
  N       1.315137      0.753306      4.846515
  H       2.096865      0.223833      5.222606
  H       1.678975      1.670941      4.602510
  C      -1.505805      0.377326     -1.762396
  H      -1.474597      1.467962     -1.755135
  H      -1.667857      0.036224     -2.787738
  H      -2.581411     -1.170175     -0.739076
  C      -2.661720     -0.089434     -0.900551
  C      -2.593051      0.589545      0.453003
  O      -2.181034      1.725992      0.620876
  O      -3.065462     -0.182816      1.425388
  H      -2.783260      0.204844      2.289742
  N      -3.932883      0.312748     -1.527122
  H      -4.004082     -0.175574     -2.416378
  H      -4.702375     -0.031921     -0.957512
29
Coordinates from ORCA-job 2_Cu3_Cys2 E -6359.666635277628
  Cu     -0.076672     -2.325068     -1.815593
  Cu     -0.631978     -4.377822     -2.731419
  S       0.141817     -0.232645     -1.242347
  Cu      0.048529     -1.203076      0.663623
  S       0.026272     -2.354885      2.443047
  C       0.559342     -1.383826      3.896069
  H      -0.221823     -1.441054      4.658004
  H       1.465917     -1.845414      4.302603
  H       1.591007      0.135194      2.811105
  C       0.858726      0.073185      3.624314
  C      -0.388659      0.793637      3.158497
  O      -1.519893      0.546978      3.537015
  O      -0.092324      1.774805      2.302060
  H      -0.934654      2.054958      1.870083
  N       1.304550      0.743375      4.859866
  H       2.093730      0.220345      5.229553
  H       1.655613      1.669508      4.629165
  C      -1.507318      0.378832     -1.767364
  H      -1.482520      1.469774     -1.764035
  H      -1.671863      0.033146     -2.790725
  H      -2.568441     -1.170238     -0.730917
  C      -2.657163     -0.091143     -0.899285
  C      -2.589683      0.595413      0.450443
  O      -2.175429      1.731606      0.613834
  O      -3.066254     -0.171026      1.425659
  H      -2.781941      0.219009      2.288288
  N      -3.933191      0.298071     -1.524021
  H      -4.006967     -0.203085     -2.405958
  H      -4.698019     -0.041899     -0.945341
29
Coordinates from ORCA-job 2_Cu3_Cys2 E -6359.666658438609
  Cu     -0.071410     -2.316378     -1.839458
  Cu     -0.615023     -4.371592     -2.760841
  S       0.139718     -0.231304     -1.246270
  Cu      0.053282     -1.203030      0.659161
  S       0.026030     -2.353863      2.439180
  C       0.552488     -1.383715      3.895974
  H      -0.235584     -1.438415      4.650741
  H       1.454012     -1.850261      4.307674
  H       1.599789      0.132622      2.821683
  C       0.860045      0.072458      3.628274
  C      -0.380718      0.797908      3.152441
  O      -1.514835      0.559123      3.527838
  O      -0.075503      1.772761      2.292761
  H      -0.914167      2.056524      1.855823
  N       1.297089      0.737985      4.869366
  H       2.089644      0.219126      5.237777
  H       1.641763      1.668312      4.645688
  C      -1.512356      0.373653     -1.769502
  H      -1.489557      1.464690     -1.772852
  H      -1.680717      0.021818     -2.790080
  H      -2.564317     -1.171545     -0.718878
  C      -2.657116     -0.093726     -0.893742
  C      -2.586454      0.600121      0.452137
  O      -2.162324      1.733276      0.611051
  O      -3.073942     -0.156192      1.430182
  H      -2.786907      0.236828      2.290795
  N      -3.937466      0.288183     -1.514043
  H      -4.016961     -0.222163     -2.390232
  H      -4.697791     -0.046547     -0.926426
29
Coordinates from ORCA-job 2_Cu3_Cys2 E -6359.666678644560
  Cu     -0.088019     -2.315296     -1.846317
  Cu     -0.664647     -4.366841     -2.756452
  S       0.141876     -0.230784     -1.261318
  Cu      0.066365     -1.191459      0.651329
  S       0.045953     -2.347819      2.427467
  C       0.558256     -1.383424      3.892935
  H      -0.234267     -1.445310      4.642338
  H       1.459658     -1.848428      4.306595
  H       1.608477      0.144316      2.837272
  C       0.861664      0.075865      3.636607
  C      -0.378027      0.798666      3.154294
  O      -1.513042      0.557975      3.526507
  O      -0.072034      1.771563      2.293269
  H      -0.909888      2.051996      1.851944
  N       1.284750      0.734107      4.886363
  H       2.081250      0.220803      5.254148
  H       1.620627      1.670233      4.673437
  C      -1.512516      0.373504     -1.777409
  H      -1.490612      1.464593     -1.779944
  H      -1.684990      0.022682     -2.797661
  H      -2.554217     -1.173546     -0.720349
  C      -2.652445     -0.096452     -0.896973
  C      -2.580102      0.599901      0.447419
  O      -2.153349      1.732558      0.604165
  O      -3.069815     -0.152831      1.427208
  H      -2.780057      0.242157      2.286385
  N      -3.937181      0.279017     -1.512150
  H      -4.019962     -0.234933     -2.385952
  H      -4.692995     -0.056159     -0.918936
29
Coordinates from ORCA-job 2_Cu3_Cys2 E -6359.666701956417
  Cu     -0.101963     -2.317138     -1.853444
  Cu     -0.696535     -4.364779     -2.760650
  S       0.142668     -0.233055     -1.274628
  Cu      0.076581     -1.184272      0.645923
  S       0.063413     -2.342670      2.420525
  C       0.561322     -1.382262      3.892631
  H      -0.234898     -1.446694      4.637967
  H       1.461601     -1.844498      4.311922
  H       1.614462      0.152218      2.848637
  C       0.862894      0.078823      3.642987
  C      -0.375903      0.799501      3.156011
  O      -1.511524      0.557108      3.526275
  O      -0.070096      1.771302      2.293813
  H      -0.908372      2.047561      1.849433
  N       1.276894      0.733911      4.897633
  H       2.073238      0.222258      5.268161
  H       1.611213      1.671716      4.689461
  C      -1.513295      0.373282     -1.783580
  H      -1.489774      1.464347     -1.783729
  H      -1.689923      0.025437     -2.804154
  H      -2.548505     -1.175744     -0.724426
  C      -2.649417     -0.098624     -0.899577
  C      -2.574350      0.597090      0.444797
  O      -2.141467      1.727774      0.601090
  O      -3.069143     -0.152020      1.424640
  H      -2.777410      0.243077      2.283568
  N      -3.937849      0.274609     -1.508537
  H      -4.023403     -0.236570     -2.383696
  H      -4.689749     -0.065032     -0.912829
29
Coordinates from ORCA-job 2_Cu3_Cys2 E -6359.666707923644
  Cu     -0.111360     -2.317851     -1.855137
  Cu     -0.712827     -4.362835     -2.761906
  S       0.142501     -0.232552     -1.284194
  Cu      0.083992     -1.175836      0.642700
  S       0.075542     -2.337353      2.414600
  C       0.561308     -1.381221      3.892367
  H      -0.238620     -1.446149      4.633830
  H       1.459177     -1.842504      4.318045
  H       1.617710      0.156246      2.855472
  C       0.863661      0.080613      3.647200
  C      -0.374304      0.800837      3.157977
  O      -1.510316      0.558489      3.526966
  O      -0.067887      1.771547      2.294455
  H      -0.906198      2.044987      1.848185
  N       1.273701      0.733580      4.904363
  H       2.065929      0.218475      5.278840
  H       1.613116      1.669964      4.698166
  C      -1.515219      0.373823     -1.788617
  H      -1.491721      1.464819     -1.788254
  H      -1.694451      0.026504     -2.808900
  H      -2.544434     -1.177134     -0.727011
  C      -2.647932     -0.100108     -0.901318
  C      -2.570597      0.595513      0.442716
  O      -2.135723      1.725580      0.598217
  O      -3.066674     -0.151876      1.423161
  H      -2.774756      0.243482      2.281842
  N      -3.939413      0.270247     -1.505594
  H      -4.025265     -0.237551     -2.382663
  H      -4.688230     -0.075078     -0.909285
29
Coordinates from ORCA-job 2_Cu3_Cys2 E -6359.666719871656
  Cu     -0.106758     -2.313381     -1.859208
  Cu     -0.703105     -4.359181     -2.766378
  S       0.141684     -0.227420     -1.288214
  Cu      0.086869     -1.172604      0.639855
  S       0.078252     -2.335036      2.410542
  C       0.556369     -1.380999      3.891556
  H      -0.247747     -1.442817      4.628866
  H       1.449790     -1.844507      4.324299
  H       1.619806      0.154104      2.857883
  C       0.864155      0.080121      3.648177
  C      -0.371528      0.803109      3.157288
  O      -1.508177      0.565010      3.526771
  O      -0.062233      1.771227      2.291575
  H      -0.899982      2.045982      1.845083
  N       1.273647      0.731310      4.906390
  H       2.060857      0.210924      5.284090
  H       1.620154      1.665206      4.700864
  C      -1.519193      0.372829     -1.791016
  H      -1.498256      1.463825     -1.794459
  H      -1.699703      0.021328     -2.809623
  H      -2.542208     -1.177694     -0.722899
  C      -2.648276     -0.101253     -0.899355
  C      -2.569031      0.597565      0.442710
  O      -2.129830      1.726242      0.595758
  O      -3.068919     -0.145384      1.424526
  H      -2.776623      0.250462      2.282656
  N      -3.942538      0.264623     -1.500589
  H      -4.028112     -0.242702     -2.377950
  H      -4.688653     -0.084232     -0.902973
29
Coordinates from ORCA-job 2_Cu3_Cys2 E -6359.666726934045
  Cu     -0.100776     -2.306173     -1.859851
  Cu     -0.692298     -4.352937     -2.766992
  S       0.141305     -0.218139     -1.291287
  Cu      0.091776     -1.167212      0.636092
  S       0.083538     -2.333182      2.403644
  C       0.550082     -1.380895      3.889234
  H      -0.261108     -1.439307      4.619162
  H       1.436894     -1.847846      4.331881
  H       1.622748      0.151021      2.859759
  C       0.865022      0.079222      3.648189
  C      -0.367889      0.805599      3.154845
  O      -1.505379      0.572923      3.524532
  O      -0.054539      1.770348      2.286506
  H      -0.890941      2.047450      1.839435
  N       1.273139      0.728135      4.907855
  H       2.052250      0.199758      5.291118
  H       1.630257      1.658230      4.703647
  C      -1.524052      0.372157     -1.792807
  H      -1.508132      1.463156     -1.801828
  H      -1.704995      0.014158     -2.809055
  H      -2.538833     -1.177982     -0.715995
  C      -2.648719     -0.102546     -0.896157
  C      -2.568183      0.601123      0.443178
  O      -2.126313      1.729026      0.593066
  O      -3.070642     -0.137566      1.426971
  H      -2.778176      0.259160      2.284245
  N      -3.945945      0.256585     -1.495267
  H      -4.030141     -0.252247     -2.371895
  H      -4.689239     -0.095363     -0.896000
29
Coordinates from ORCA-job 2_Cu3_Cys2 E -6359.666731354605
  Cu     -0.083433     -2.291148     -1.866615
  Cu     -0.662087     -4.338968     -2.778848
  S       0.139195     -0.201657     -1.292879
  Cu      0.095412     -1.162648      0.630355
  S       0.088367     -2.332755      2.394114
  C       0.537989     -1.381285      3.885589
  H      -0.284817     -1.432719      4.602962
  H       1.413842     -1.854751      4.342989
  H       1.629064      0.143528      2.863750
  C       0.866851      0.076539      3.648122
  C      -0.359487      0.811141      3.149743
  O      -1.498637      0.591213      3.521743
  O      -0.037840      1.767059      2.274814
  H      -0.871590      2.050305      1.827189
  N       1.272102      0.720167      4.911091
  H       2.039445      0.180402      5.302043
  H       1.643902      1.645264      4.710880
  C      -1.533463      0.368367     -1.795050
  H      -1.526802      1.459306     -1.816614
  H      -1.714655     -0.003330     -2.806308
  H      -2.533484     -1.177971     -0.699017
  C      -2.650595     -0.104959     -0.888907
  C      -2.568439      0.610643      0.443863
  O      -2.120233      1.736883      0.585822
  O      -3.077397     -0.117209      1.432554
  H      -2.782665      0.283204      2.287024
  N      -3.952971      0.240409     -1.485065
  H      -4.035797     -0.274460     -2.358309
  H      -4.691066     -0.113912     -0.880810
29
Coordinates from ORCA-job 2_Cu3_Cys2 E -6359.666736623170
  Cu     -0.079897     -2.289433     -1.865246
  Cu     -0.659303     -4.337962     -2.775365
  S       0.139088     -0.198383     -1.293034
  Cu      0.096440     -1.161831      0.627899
  S       0.091051     -2.333538      2.390876
  C       0.536585     -1.381547      3.883625
  H      -0.288615     -1.432639      4.598163
  H       1.410919     -1.855759      4.343080
  H       1.630835      0.143020      2.864492
  C       0.866950      0.076109      3.647236
  C      -0.358267      0.811392      3.146837
  O      -1.497849      0.592523      3.518521
  O      -0.035667      1.765991      2.271147
  H      -0.869036      2.050505      1.823491
  N       1.269488      0.718798      4.911490
  H       2.035235      0.178351      5.304578
  H       1.642419      1.643771      4.712890
  C      -1.534566      0.368190     -1.794743
  H      -1.529525      1.459144     -1.817684
  H      -1.715995     -0.004952     -2.805423
  H      -2.532921     -1.177838     -0.696640
  C      -2.650687     -0.105037     -0.887436
  C      -2.567851      0.611567      0.444842
  O      -2.119325      1.737849      0.585827
  O      -3.076119     -0.115569      1.434398
  H      -2.780733      0.285982      2.288247
  N      -3.953535      0.239234     -1.483195
  H      -4.037275     -0.277657     -2.355171
  H      -4.691136     -0.113628     -0.877477
29
Coordinates from ORCA-job 2_Cu3_Cys2 E -6359.666726628931
  Cu     -0.057342     -2.275751     -1.866788
  Cu     -0.621143     -4.326069     -2.780288
  S       0.133310     -0.177998     -1.294604
  Cu      0.099147     -1.154068      0.615416
  S       0.111589     -2.336547      2.372251
  C       0.524761     -1.382411      3.874614
  H      -0.318681     -1.428392      4.567361
  H       1.385747     -1.862836      4.352195
  H       1.645740      0.137644      2.875291
  C       0.870487      0.073204      3.646875
  C      -0.344873      0.816893      3.133657
  O      -1.487297      0.610445      3.505651
  O      -0.013392      1.758863      2.249635
  H      -0.843387      2.051082      1.800438
  N       1.257430      0.706889      4.920134
  H       2.009725      0.157775      5.326664
  H       1.642270      1.629345      4.733290
  C      -1.547302      0.361996     -1.797152
  H      -1.553428      1.452674     -1.836090
  H      -1.730439     -0.027268     -2.801398
  H      -2.531069     -1.176781     -0.676253
  C      -2.655074     -0.106594     -0.878301
  C      -2.566820      0.622918      0.446905
  O      -2.112430      1.748314      0.577110
  O      -3.075244     -0.092942      1.444688
  H      -2.772380      0.316454      2.292742
  N      -3.962812      0.225305     -1.470166
  H      -4.051283     -0.304978     -2.333622
  H      -4.695100     -0.120513     -0.854032
29
Coordinates from ORCA-job 2_Cu3_Cys2 E -6359.666733386654
  Cu     -0.054378     -2.275203     -1.869474
  Cu     -0.608527     -4.326179     -2.786547
  S       0.130970     -0.177978     -1.294249
  Cu      0.095488     -1.154320      0.615901
  S       0.111962     -2.336736      2.373033
  C       0.522873     -1.382370      3.875625
  H      -0.321459     -1.426996      4.567360
  H       1.382761     -1.863305      4.354680
  H       1.647026      0.135922      2.876850
  C       0.871147      0.072746      3.647899
  C      -0.342821      0.818169      3.134242
  O      -1.485278      0.614526      3.507947
  O      -0.010412      1.757863      2.248257
  H      -0.840570      2.049998      1.799058
  N       1.258631      0.705692      4.921370
  H       2.011217      0.156447      5.327224
  H       1.643502      1.628211      4.734768
  C      -1.549417      0.360864     -1.798390
  H      -1.555319      1.451500     -1.839138
  H      -1.733040     -0.029841     -2.802030
  H      -2.532463     -1.176603     -0.675749
  C      -2.656661     -0.106529     -0.878357
  C      -2.567122      0.623758      0.446228
  O      -2.110383      1.748331      0.575536
  O      -3.077363     -0.090137      1.444581
  H      -2.773128      0.319531      2.292157
  N      -3.965108      0.225065     -1.468781
  H      -4.054827     -0.305110     -2.332170
  H      -4.696589     -0.120659     -0.851610
29
Coordinates from ORCA-job 2_Cu3_Cys2 E -6359.666742321169
  Cu     -0.070547     -2.292551     -1.872869
  Cu     -0.607549     -4.345200     -2.794844
  S       0.127131     -0.201586     -1.293024
  Cu      0.081907     -1.162632      0.627962
  S       0.104259     -2.336252      2.391628
  C       0.533566     -1.381998      3.887113
  H      -0.297368     -1.430095      4.595049
  H       1.403666     -1.856699      4.354015
  H       1.640256      0.139212      2.875025
  C       0.870765      0.074736      3.652416
  C      -0.349129      0.813556      3.145664
  O      -1.489657      0.601710      3.520041
  O      -0.023184      1.759901      2.263027
  H      -0.856924      2.041809      1.813206
  N       1.268242      0.714924      4.919644
  H       2.036987      0.177950      5.311774
  H       1.636747      1.642516      4.724422
  C      -1.544094      0.364235     -1.800280
  H      -1.535815      1.455110     -1.829091
  H      -1.728951     -0.012641     -2.809076
  H      -2.542879     -1.175817     -0.697246
  C      -2.659042     -0.102857     -0.888559
  C      -2.568453      0.614677      0.442323
  O      -2.109759      1.737428      0.580354
  O      -3.082000     -0.105787      1.434322
  H      -2.778472      0.295953      2.285919
  N      -3.964016      0.244392     -1.477549
  H      -4.055918     -0.272535     -2.348609
  H      -4.699056     -0.104801     -0.866537
29
Coordinates from ORCA-job 2_Cu3_Cys2 E -6359.666750725044
  Cu     -0.067883     -2.287882     -1.867245
  Cu     -0.617073     -4.340166     -2.783711
  S       0.129588     -0.193862     -1.293762
  Cu      0.086993     -1.158188      0.624149
  S       0.108125     -2.336329      2.384599
  C       0.531689     -1.382358      3.882654
  H      -0.303204     -1.430814      4.585761
  H       1.399205     -1.858471      4.352836
  H       1.641598      0.139206      2.874352
  C       0.870753      0.074183      3.650345
  C      -0.348579      0.813759      3.142293
  O      -1.489536      0.601748      3.515223
  O      -0.021807      1.760519      2.260705
  H      -0.854659      2.046092      1.811899
  N       1.265229      0.712425      4.919375
  H       2.029756      0.172244      5.315183
  H       1.637822      1.638850      4.726702
  C      -1.544383      0.364553     -1.799712
  H      -1.540665      1.455400     -1.830700
  H      -1.728300     -0.015412     -2.807452
  H      -2.538577     -1.176147     -0.692547
  C      -2.657257     -0.103890     -0.886357
  C      -2.567657      0.616517      0.443350
  O      -2.111507      1.740486      0.579620
  O      -3.078570     -0.103719      1.436771
  H      -2.776588      0.300519      2.287636
  N      -3.962939      0.238867     -1.476396
  H      -4.053574     -0.282043     -2.345245
  H      -4.697291     -0.109431     -0.864105
29
Coordinates from ORCA-job 2_Cu3_Cys2 E -6359.666751299895
  Cu     -0.064492     -2.285782     -1.865203
  Cu     -0.611289     -4.340070     -2.779253
  S       0.129420     -0.190959     -1.292651
  Cu      0.086321     -1.157773      0.623592
  S       0.108151     -2.337343      2.383155
  C       0.530116     -1.382875      3.881664
  H      -0.306261     -1.430449      4.583013
  H       1.396284     -1.859957      4.353345
  H       1.641853      0.137285      2.873298
  C       0.870769      0.073206      3.649119
  C      -0.347976      0.813588      3.140453
  O      -1.489185      0.602585      3.513189
  O      -0.020372      1.759904      2.258755
  H      -0.852762      2.046610      1.809934
  N       1.265052      0.711440      4.918192
  H       2.029034      0.170806      5.314432
  H       1.638256      1.637630      4.725611
  C      -1.545229      0.365018     -1.799013
  H      -1.542901      1.455845     -1.830897
  H      -1.728508     -0.016169     -2.806387
  H      -2.538437     -1.175710     -0.690872
  C      -2.657643     -0.103625     -0.885302
  C      -2.568104      0.617605      0.444045
  O      -2.112531      1.741870      0.579714
  O      -3.077990     -0.102660      1.437934
  H      -2.775757      0.301924      2.288528
  N      -3.963461      0.238198     -1.475597
  H      -4.053955     -0.283944     -2.343734
  H      -4.697690     -0.109543     -0.862842
29
Coordinates from ORCA-job 2_Cu3_Cys2 E -6359.666752644138
  Cu     -0.059994     -2.283157     -1.863091
  Cu     -0.602750     -4.340809     -2.772960
  S       0.128449     -0.187387     -1.292289
  Cu      0.086536     -1.156461      0.622278
  S       0.113288     -2.339186      2.379740
  C       0.528122     -1.383740      3.880098
  H      -0.312207     -1.430221      4.576681
  H       1.391114     -1.862023      4.356332
  H       1.643669      0.134805      2.873349
  C       0.871309      0.071760      3.647961
  C      -0.346270      0.812985      3.137236
  O      -1.488131      0.603034      3.508511
  O      -0.016962      1.758998      2.255824
  H      -0.848616      2.047468      1.806911
  N       1.263562      0.709846      4.917739
  H       2.027413      0.169489      5.314602
  H       1.636396      1.636345      4.725946
  C      -1.547214      0.365509     -1.798754
  H      -1.546507      1.456282     -1.832056
  H      -1.730075     -0.017497     -2.805481
  H      -2.538616     -1.175068     -0.688739
  C      -2.658550     -0.103199     -0.883882
  C      -2.568136      0.619117      0.444931
  O      -2.111491      1.742990      0.579944
  O      -3.078349     -0.100133      1.439417
  H      -2.775615      0.304856      2.289592
  N      -3.964995      0.237583     -1.473513
  H      -4.056097     -0.286219     -2.340601
  H      -4.698576     -0.109310     -0.859504
29
Coordinates from ORCA-job 2_Cu3_Cys2 E -6359.666699134848
  Cu     -0.033110     -2.267394     -1.852693
  Cu     -0.549070     -4.344283     -2.738663
  S       0.121327     -0.166234     -1.291942
  Cu      0.084630     -1.146527      0.614773
  S       0.142336     -2.347617      2.359459
  C       0.514931     -1.388551      3.870717
  H      -0.347294     -1.428352      4.539900
  H       1.359204     -1.873825      4.372614
  H       1.654553      0.120638      2.875885
  C       0.874465      0.063529      3.642997
  C      -0.335220      0.811601      3.121120
  O      -1.480588      0.610342      3.486226
  O       0.004359      1.753526      2.239269
  H      -0.823163      2.051573      1.789609
  N       1.255878      0.698361      4.917708
  H       2.019056      0.158727      5.316845
  H       1.626984      1.626786      4.731867
  C      -1.560315      0.367259     -1.799518
  H      -1.569377      1.457598     -1.842538
  H      -1.741404     -0.027612     -2.801813
  H      -2.539382     -1.171594     -0.676398
  C      -2.664312     -0.101196     -0.876384
  C      -2.567768      0.628442      0.448488
  O      -2.104981      1.750283      0.578032
  O      -3.078974     -0.083937      1.447521
  H      -2.772448      0.324259      2.294627
  N      -3.975276      0.232215     -1.460674
  H      -4.070271     -0.300539     -2.321937
  H      -4.704061     -0.110822     -0.838874
29
Coordinates from ORCA-job 2_Cu3_Cys2 E -6359.666704294894
  Cu     -0.027875     -2.266625     -1.854406
  Cu     -0.530792     -4.345706     -2.743399
  S       0.118823     -0.166782     -1.288927
  Cu      0.080389     -1.148780      0.617165
  S       0.143643     -2.350464      2.361375
  C       0.512531     -1.389008      3.872198
  H      -0.351750     -1.426571      4.538786
  H       1.354547     -1.874884      4.377263
  H       1.654901      0.116533      2.874848
  C       0.875030      0.062044      3.642357
  C      -0.333482      0.811805      3.120104
  O      -1.479044      0.613078      3.485843
  O       0.007444      1.752596      2.237387
  H      -0.819919      2.051803      1.788308
  N       1.258113      0.698083      4.916025
  H       2.022648      0.159406      5.313876
  H       1.628144      1.626659      4.728689
  C      -1.562223      0.366654     -1.798793
  H      -1.570798      1.456941     -1.842864
  H      -1.742679     -0.029188     -2.800809
  H      -2.542593     -1.171057     -0.675541
  C      -2.666682     -0.100589     -0.875643
  C      -2.569219      0.629307      0.449036
  O      -2.104801      1.750418      0.578517
  O      -3.081794     -0.082104      1.448198
  H      -2.774766      0.326127      2.295027
  N      -3.977530      0.233982     -1.459580
  H      -4.073119     -0.298281     -2.321076
  H      -4.706437     -0.108741     -0.837738
29
Coordinates from ORCA-job 2_Cu3_Cys2 E -6359.666718839582
  Cu     -0.040561     -2.289391     -1.889351
  Cu     -0.503970     -4.354898     -2.826673
  S       0.112510     -0.206160     -1.281161
  Cu      0.059555     -1.174883      0.640024
  S       0.119743     -2.351801      2.400830
  C       0.518207     -1.384406      3.896823
  H      -0.327777     -1.420462      4.587113
  H       1.374232     -1.861412      4.386573
  H       1.641017      0.116478      2.871014
  C       0.873140      0.066773      3.650972
  C      -0.339626      0.816585      3.143684
  O      -1.480532      0.621880      3.525506
  O      -0.006776      1.753714      2.252809
  H      -0.840766      2.041225      1.807420
  N       1.281712      0.712953      4.911993
  H       2.058070      0.180908      5.295863
  H       1.644426      1.641159      4.708229
  C      -1.556275      0.359339     -1.798604
  H      -1.544551      1.449970     -1.833926
  H      -1.739454     -0.023383     -2.805459
  H      -2.561734     -1.172984     -0.692270
  C      -2.672558     -0.099701     -0.884671
  C      -2.575023      0.619977      0.444451
  O      -2.108464      1.739439      0.580270
  O      -3.093449     -0.095007      1.438722
  H      -2.786747      0.308747      2.287792
  N      -3.977711      0.254356     -1.469599
  H      -4.073320     -0.256973     -2.343512
  H      -4.712605     -0.095388     -0.858640
29
Coordinates from ORCA-job 2_Cu3_Cys2 E -6359.666752301326
  Cu     -0.048778     -2.286130     -1.877178
  Cu     -0.547971     -4.346536     -2.806582
  S       0.119484     -0.198200     -1.283704
  Cu      0.066818     -1.167894      0.634172
  S       0.110893     -2.346212      2.393972
  C       0.523234     -1.384043      3.889890
  H      -0.317353     -1.424010      4.586534
  H       1.384416     -1.861280      4.370383
  H       1.641641      0.124465      2.870818
  C       0.872756      0.068854      3.649430
  C      -0.342716      0.815290      3.142614
  O      -1.483972      0.611534      3.518736
  O      -0.012090      1.758857      2.258536
  H      -0.844912      2.047057      1.811856
  N       1.276263      0.711076      4.913931
  H       2.047327      0.175010      5.302692
  H       1.643671      1.638406      4.715206
  C      -1.551604      0.361021     -1.798722
  H      -1.544871      1.451689     -1.834140
  H      -1.733926     -0.022678     -2.805342
  H      -2.551239     -1.174068     -0.690074
  C      -2.666321     -0.101618     -0.884872
  C      -2.573133      0.620283      0.443725
  O      -2.110914      1.741660      0.578954
  O      -3.089283     -0.095664      1.438039
  H      -2.785140      0.309021      2.287595
  N      -3.971543      0.245476     -1.473383
  H      -4.063679     -0.270960     -2.344677
  H      -4.706348     -0.103752     -0.862188
29
Coordinates from ORCA-job 2_Cu3_Cys2 E -6359.666748273928
  Cu     -0.058979     -2.280361     -1.858617
  Cu     -0.606367     -4.341128     -2.759850
  S       0.128277     -0.183419     -1.292134
  Cu      0.084261     -1.153418      0.621773
  S       0.117558     -2.339764      2.376598
  C       0.526353     -1.384113      3.878769
  H      -0.316974     -1.429577      4.571733
  H       1.386859     -1.863666      4.358263
  H       1.644363      0.133070      2.872861
  C       0.871375      0.070778      3.646865
  C      -0.346024      0.811734      3.134717
  O      -1.488248      0.601102      3.504574
  O      -0.016406      1.758240      2.254101
  H      -0.847659      2.046554      1.804302
  N       1.262408      0.709070      4.916953
  H       2.028146      0.170632      5.312849
  H       1.632529      1.636780      4.725658
  C      -1.547630      0.368153     -1.798558
  H      -1.548499      1.458965     -1.830789
  H      -1.729707     -0.014518     -2.805555
  H      -2.536789     -1.174699     -0.689843
  C      -2.657947     -0.102761     -0.883810
  C      -2.566834      0.618351      0.445670
  O      -2.111677      1.742804      0.581040
  O      -3.073665     -0.103035      1.440171
  H      -2.769858      0.301043      2.290515
  N      -3.964855      0.237200     -1.472776
  H      -4.055326     -0.286191     -2.340196
  H      -4.697974     -0.111172     -0.859061
29
Coordinates from ORCA-job 2_Cu3_Cys2 E -6359.666759478726
  Cu     -0.049619     -2.279484     -1.864259
  Cu     -0.573778     -4.344343     -2.770447
  S       0.123577     -0.184383     -1.290177
  Cu      0.079924     -1.156434      0.623661
  S       0.123264     -2.343682      2.377656
  C       0.523084     -1.385290      3.880505
  H      -0.324201     -1.428015      4.568707
  H       1.379975     -1.865050      4.366104
  H       1.646189      0.127875      2.873540
  C       0.872750      0.068496      3.647295
  C      -0.342299      0.812824      3.134764
  O      -1.484920      0.606432      3.505660
  O      -0.010260      1.757338      2.252659
  H      -0.841379      2.047790      1.804140
  N       1.265231      0.706993      4.916905
  H       2.031685      0.168786      5.311693
  H       1.635085      1.634657      4.724734
  C      -1.552254      0.365116     -1.799418
  H      -1.552452      1.455775     -1.835841
  H      -1.734562     -0.021225     -2.804955
  H      -2.542542     -1.173601     -0.686333
  C      -2.662452     -0.101931     -0.882546
  C      -2.569187      0.621966      0.445239
  O      -2.109617      1.744757      0.578744
  O      -3.080465     -0.094896      1.441076
  H      -2.775904      0.310837      2.290209
  N      -3.969828      0.238705     -1.470233
  H      -4.061913     -0.284626     -2.337488
  H      -4.702422     -0.108728     -0.855371
29
Coordinates from ORCA-job 2_Cu3_Cys2 E -6359.666761948248
  Cu     -0.057723     -2.286020     -1.870890
  Cu     -0.575887     -4.347320     -2.788076
  S       0.122752     -0.194886     -1.288950
  Cu      0.075109     -1.162065      0.629399
  S       0.116971     -2.342964      2.387524
  C       0.526175     -1.383778      3.886346
  H      -0.315118     -1.427051      4.581948
  H       1.387821     -1.860641      4.366419
  H       1.642960      0.129685      2.873065
  C       0.872435      0.070438      3.649771
  C      -0.344206      0.813975      3.141144
  O      -1.485640      0.606783      3.515076
  O      -0.014670      1.758975      2.258429
  H      -0.847347      2.046006      1.810493
  N       1.270687      0.711222      4.916548
  H       2.040156      0.174804      5.307960
  H       1.638486      1.638984      4.720716
  C      -1.549617      0.364364     -1.799603
  H      -1.544424      1.455142     -1.831944
  H      -1.732496     -0.016845     -2.807059
  H      -2.546146     -1.174578     -0.692954
  C      -2.663045     -0.102015     -0.886055
  C      -2.570490      0.617979      0.443649
  O      -2.111074      1.740478      0.579945
  O      -3.083135     -0.100943      1.437372
  H      -2.779355      0.303060      2.287556
  N      -3.968866      0.243694     -1.474048
  H      -4.060542     -0.273469     -2.344995
  H      -4.703058     -0.106359     -0.862566
29
Coordinates from ORCA-job 2_Cu3_Cys2 E -6359.666758822998
  Cu     -0.053860     -2.281938     -1.866198
  Cu     -0.577264     -4.345788     -2.774922
  S       0.123481     -0.188021     -1.290452
  Cu      0.078935     -1.157958      0.625271
  S       0.121825     -2.343029      2.380643
  C       0.524540     -1.384659      3.882331
  H      -0.320620     -1.427902      4.573157
  H       1.383230     -1.863250      4.365940
  H       1.645231      0.129189      2.873796
  C       0.872617      0.069445      3.648360
  C      -0.343081      0.813226      3.137038
  O      -1.485280      0.606263      3.508884
  O      -0.012045      1.757923      2.254717
  H      -0.843726      2.046855      1.806203
  N       1.266637      0.708553      4.917218
  H       2.033996      0.170926      5.311060
  H       1.635829      1.636294      4.724069
  C      -1.551172      0.365254     -1.799700
  H      -1.549457      1.455978     -1.834186
  H      -1.733848     -0.018801     -2.806073
  H      -2.543403     -1.174021     -0.689296
  C      -2.662396     -0.101987     -0.884070
  C      -2.569347      0.620142      0.444590
  O      -2.110109      1.742929      0.579288
  O      -3.080715     -0.097853      1.439564
  H      -2.776386      0.307105      2.289144
  N      -3.969314      0.240447     -1.471647
  H      -4.061214     -0.280362     -2.340423
  H      -4.702374     -0.108305     -0.858081
29
Coordinates from ORCA-job 2_Cu3_Cys2 E -6359.666764514804
  Cu     -0.054412     -2.281581     -1.865774
  Cu     -0.581363     -4.344548     -2.774652
  S       0.123948     -0.187605     -1.290398
  Cu      0.079453     -1.157681      0.625179
  S       0.123172     -2.343187      2.380189
  C       0.524675     -1.384586      3.882105
  H      -0.320945     -1.428002      4.572346
  H       1.383113     -1.863061      4.366247
  H       1.645424      0.129514      2.873934
  C       0.872621      0.069576      3.648297
  C      -0.343137      0.813116      3.136741
  O      -1.485358      0.605779      3.508318
  O      -0.012180      1.757999      2.254620
  H      -0.843828      2.046927      1.806048
  N       1.266133      0.708695      4.917299
  H       2.033354      0.171104      5.311450
  H       1.635312      1.636476      4.724342
  C      -1.550809      0.365386     -1.799611
  H      -1.549367      1.456112     -1.833995
  H      -1.733364     -0.018626     -2.806023
  H      -2.542619     -1.174171     -0.689172
  C      -2.661935     -0.102185     -0.884019
  C      -2.569103      0.619995      0.444644
  O      -2.110075      1.742866      0.579392
  O      -3.080354     -0.098118      1.439588
  H      -2.776136      0.306879      2.289189
  N      -3.968933      0.239812     -1.471662
  H      -4.060661     -0.281192     -2.340339
  H      -4.701915     -0.109038     -0.858060
