43
Coordinates from ORCA-job 3_Cu4_Cys3 E -8719.514431160755
  Cu     -1.706403     -1.926631     -0.613829
  S       1.704374     -1.059550      2.965884
  S      -2.400968     -0.612017     -2.724155
  Cu     -0.164080     -2.082204      1.507198
  Cu     -0.301764      0.282166     -1.779094
  Cu      1.567027      0.093359      0.790849
  S       1.836688      1.382606     -1.278982
  C       2.583475     -1.116638      4.558468
  H       1.950982     -0.622470      5.304894
  H       2.682247     -2.168478      4.848260
  H       4.577594     -0.983505      3.736536
  C       3.961228     -0.456938      4.475353
  C       3.876824      0.999614      4.059139
  O       2.824680      1.559029      3.773189
  O       5.081099      1.622092      3.997434
  H       4.995959      2.556349      3.710866
  N       4.619361     -0.504767      5.782478
  H       4.698619     -1.473570      6.089326
  H       5.573655     -0.156230      5.696835
  C       3.009137      2.546083     -2.043237
  H       3.452106      3.146624     -1.240411
  H       3.811701      1.958607     -2.502437
  H       1.918007      2.807594     -3.890088
  C       2.333971      3.433139     -3.090901
  C       1.201312      4.254777     -2.504474
  O       0.842274      4.170381     -1.335847
  O       0.594590      5.070809     -3.403109
  H      -0.142424      5.576508     -2.999025
  N       3.307903      4.367028     -3.659504
  H       4.081622      3.845357     -4.069669
  H       2.877647      4.884002     -4.425734
  C      -3.622829     -0.428140     -4.060435
  H      -3.136538      0.107669     -4.883740
  H      -3.878745     -1.430904     -4.419705
  H      -5.355759     -0.263909     -2.779893
  C      -4.880469      0.304165     -3.588857
  C      -4.573436      1.694376     -3.064504
  O      -3.438179      2.148577     -2.983185
  O      -5.671138      2.381180     -2.658410
  H      -5.439663      3.268636     -2.310492
  N      -5.821956      0.450068     -4.700755
  H      -6.055454     -0.469660     -5.073040
  H      -6.696297      0.846596     -4.357559
43
Coordinates from ORCA-job 3_Cu4_Cys3 E -8719.539191946184
  Cu     -1.689002     -1.912038     -0.599974
  S       1.690860     -1.052582      2.947902
  S      -2.371924     -0.599183     -2.680761
  Cu     -0.155212     -2.070481      1.507593
  Cu     -0.300222      0.299749     -1.751833
  Cu      1.562322      0.107569      0.806866
  S       1.804698      1.392084     -1.236439
  C       2.584053     -1.096051      4.536394
  H       1.972206     -0.609053      5.300154
  H       2.689158     -2.150066      4.807178
  H       4.550225     -0.977922      3.697335
  C       3.965746     -0.460816      4.470532
  C       3.943405      1.014814      4.127258
  O       2.950270      1.670415      3.903324
  O       5.190630      1.539031      4.087609
  H       5.137531      2.481168      3.858447
  N       4.634726     -0.583766      5.775995
  H       4.683960     -1.565394      6.034405
  H       5.595021     -0.258434      5.698084
  C       2.958536      2.568973     -2.005336
  H       3.405106      3.186179     -1.221938
  H       3.755282      1.982943     -2.471660
  H       1.856033      2.771129     -3.828693
  C       2.288869      3.431858     -3.064974
  C       1.175128      4.308308     -2.527264
  O       0.803769      4.347797     -1.375411
  O       0.611024      5.053893     -3.504813
  H      -0.106931      5.588573     -3.128783
  N       3.283456      4.327228     -3.675441
  H       4.040047      3.770834     -4.064047
  H       2.859652      4.821755     -4.456153
  C      -3.583301     -0.395627     -4.026017
  H      -3.109286      0.138939     -4.853396
  H      -3.837122     -1.400381     -4.374442
  H      -5.300621     -0.242965     -2.757299
  C      -4.852598      0.320398     -3.587223
  C      -4.620046      1.742043     -3.114929
  O      -3.547167      2.301858     -3.059810
  O      -5.776279      2.340462     -2.743823
  H      -5.589847      3.244385     -2.442601
  N      -5.797890      0.395248     -4.713090
  H      -5.991900     -0.544162     -5.048908
  H      -6.684380      0.773072     -4.388376
43
Coordinates from ORCA-job 3_Cu4_Cys3 E -8719.558956239851
  Cu     -1.673598     -1.903393     -0.591442
  S       1.647382     -1.055718      2.909795
  S      -2.329586     -0.597059     -2.630315
  Cu     -0.163183     -2.065618      1.496735
  Cu     -0.297132      0.301444     -1.730716
  Cu      1.548246      0.103015      0.818499
  S       1.761552      1.364618     -1.187342
  C       2.557892     -1.068488      4.487831
  H       1.967579     -0.576238      5.262683
  H       2.679276     -2.119445      4.759724
  H       4.490584     -0.960143      3.612518
  C       3.930283     -0.440854      4.403462
  C       3.909650      1.031430      4.065523
  O       2.949517      1.720883      3.867367
  O       5.178590      1.505997      4.003273
  H       5.111250      2.444879      3.778813
  N       4.613705     -0.558735      5.708899
  H       4.658572     -1.540131      5.963209
  H       5.571634     -0.235601      5.617538
  C       2.908866      2.545124     -1.954492
  H       3.360694      3.170347     -1.183408
  H       3.698256      1.958751     -2.430669
  H       1.801842      2.729092     -3.758590
  C       2.251765      3.401145     -3.013199
  C       1.160342      4.308394     -2.492653
  O       0.777471      4.417706     -1.362249
  O       0.639823      5.023078     -3.518714
  H      -0.057007      5.579193     -3.143189
  N       3.266131      4.277715     -3.631857
  H       4.009044      3.698729     -4.009858
  H       2.849261      4.769028     -4.416062
  C      -3.520262     -0.366815     -3.988167
  H      -3.052065      0.177574     -4.810479
  H      -3.776968     -1.367971     -4.341692
  H      -5.228869     -0.240483     -2.732422
  C      -4.791602      0.331804     -3.563285
  C      -4.582702      1.750873     -3.090487
  O      -3.550372      2.356313     -3.024680
  O      -5.772227      2.290362     -2.723991
  H      -5.586593      3.191644     -2.425388
  N      -5.724167      0.407423     -4.707749
  H      -5.899105     -0.533479     -5.045522
  H      -6.615785      0.775393     -4.391615
43
Coordinates from ORCA-job 3_Cu4_Cys3 E -8719.583049892291
  Cu     -1.652139     -1.897532     -0.582862
  S       1.566848     -1.069674      2.846851
  S      -2.259779     -0.602970     -2.556364
  Cu     -0.185782     -2.066565      1.475357
  Cu     -0.290347      0.292693     -1.703554
  Cu      1.521479      0.082916      0.836395
  S       1.693802      1.304277     -1.109197
  C       2.504169     -1.027959      4.406331
  H       1.939676     -0.524802      5.192701
  H       2.648112     -2.073097      4.689222
  H       4.390358     -0.915928      3.460356
  C       3.868186     -0.399741      4.279022
  C       3.840464      1.074252      3.949899
  O       2.905205      1.800709      3.809798
  O       5.130263      1.510622      3.835402
  H       5.036857      2.452356      3.625788
  N       4.590142     -0.517011      5.567696
  H       4.637322     -1.500932      5.811323
  H       5.543425     -0.192720      5.444097
  C       2.841884      2.487688     -1.862884
  H       3.297120      3.116495     -1.097676
  H       3.626066      1.899269     -2.345228
  H       1.727700      2.674908     -3.651139
  C       2.206802      3.347965     -2.924783
  C       1.152803      4.305671     -2.419087
  O       0.771479      4.495240     -1.305276
  O       0.672837      4.998527     -3.491505
  H       0.009628      5.591990     -3.108515
  N       3.254857      4.184681     -3.551087
  H       3.972242      3.567978     -3.918204
  H       2.852079      4.679162     -4.339767
  C      -3.415708     -0.332239     -3.934541
  H      -2.946321      0.224710     -4.747070
  H      -3.674348     -1.328312     -4.301177
  H      -5.117083     -0.229884     -2.686076
  C      -4.696854      0.347482     -3.522208
  C      -4.524368      1.771996     -3.056559
  O      -3.537513      2.438144     -3.000713
  O      -5.751092      2.250925     -2.689780
  H      -5.568824      3.159324     -2.405915
  N      -5.618820      0.405424     -4.680894
  H      -5.766702     -0.542786     -5.010896
  H      -6.518136      0.758530     -4.371642
43
Coordinates from ORCA-job 3_Cu4_Cys3 E -8719.594604739377
  Cu     -1.587169     -1.881232     -0.530987
  S       1.166446     -1.141037      2.564878
  S      -1.946076     -0.646074     -2.215392
  Cu     -0.340101     -2.081436      1.393413
  Cu     -0.265848      0.211198     -1.562042
  Cu      1.357219     -0.051561      0.931634
  S       1.376217      0.978732     -0.748394
  C       2.230708     -0.818950      4.004724
  H       1.766592     -0.238744      4.805054
  H       2.481640     -1.817379      4.377729
  H       3.886224     -0.690164      2.711685
  C       3.542572     -0.170552      3.621048
  C       3.412178      1.295967      3.272370
  O       2.524885      2.091250      3.370871
  O       4.684031      1.681045      2.777628
  H       4.453452      2.614161      2.602696
  N       4.472668     -0.216549      4.783594
  H       4.574002     -1.197434      5.024764
  H       5.379188      0.131022      4.477507
  C       2.572359      2.152831     -1.407241
  H       3.030868      2.761335     -0.628597
  H       3.344211      1.553060     -1.897782
  H       1.422204      2.463143     -3.150452
  C       2.045413      3.073950     -2.478057
  C       1.194315      4.224056     -1.970505
  O       0.918028      4.637474     -0.883733
  O       0.786160      4.908949     -3.126334
  H       0.307028      5.637393     -2.677967
  N       3.224632      3.717192     -3.120832
  H       3.804186      2.957956     -3.476500
  H       2.889789      4.259973     -3.909957
  C      -2.912324     -0.194619     -3.687936
  H      -2.397415      0.425416     -4.422941
  H      -3.159564     -1.157349     -4.147432
  H      -4.632064     -0.188845     -2.493094
  C      -4.251606      0.407720     -3.333497
  C      -4.199241      1.839704     -2.868975
  O      -3.346109      2.672006     -2.841685
  O      -5.504924      2.140379     -2.423068
  H      -5.324543      3.062569     -2.165897
  N      -5.106124      0.420830     -4.549309
  H      -5.158264     -0.542532     -4.867553
  H      -6.037860      0.716927     -4.277798
43
Coordinates from ORCA-job 3_Cu4_Cys3 E -8719.626765821793
  Cu     -1.589103     -1.849271     -0.544636
  S       1.247125     -1.126460      2.648683
  S      -2.016186     -0.639972     -2.303569
  Cu     -0.303052     -2.040124      1.410541
  Cu     -0.253274      0.256375     -1.624391
  Cu      1.423303      0.005892      0.913075
  S       1.472699      1.086884     -0.840646
  C       2.286101     -0.888896      4.127441
  H       1.792302     -0.329054      4.925180
  H       2.507527     -1.899979      4.484883
  H       3.975279     -0.707991      2.865626
  C       3.613517     -0.237169      3.790638
  C       3.486729      1.244574      3.517619
  O       2.568649      2.000690      3.689474
  O       4.727436      1.703747      3.052417
  H       4.529223      2.652292      2.926158
  N       4.535615     -0.358620      4.943008
  H       4.638984     -1.350704      5.137511
  H       5.446836     -0.002265      4.664303
  C       2.665916      2.250270     -1.531837
  H       3.126004      2.861803     -0.754117
  H       3.442639      1.654770     -2.021141
  H       1.432059      2.523983     -3.238831
  C       2.076519      3.146250     -2.601543
  C       1.229455      4.275207     -2.051511
  O       1.047477      4.650230     -0.923946
  O       0.690582      4.962615     -3.135297
  H       0.207466      5.681987     -2.681597
  N       3.193512      3.798159     -3.323196
  H       3.771911      3.055950     -3.710315
  H       2.805560      4.325848     -4.100044
  C      -3.032366     -0.255860     -3.764189
  H      -2.519692      0.344003     -4.518057
  H      -3.280867     -1.228970     -4.201693
  H      -4.724194     -0.170075     -2.505052
  C      -4.356946      0.376520     -3.383399
  C      -4.243926      1.827817     -2.987592
  O      -3.331730      2.604470     -3.078419
  O      -5.488876      2.237919     -2.499990
  H      -5.302872      3.174013     -2.295959
  N      -5.269938      0.344067     -4.547050
  H      -5.364358     -0.629349     -4.824069
  H      -6.185063      0.670209     -4.248834
43
Coordinates from ORCA-job 3_Cu4_Cys3 E -8719.634983738948
  Cu     -1.624137     -1.811597     -0.494218
  S       1.264626     -1.119451      2.711690
  S      -2.055839     -0.653604     -2.304355
  Cu     -0.327093     -1.991928      1.467826
  Cu     -0.265494      0.268122     -1.623389
  Cu      1.436719      0.028913      0.939090
  S       1.489748      1.127117     -0.847620
  C       2.328519     -0.922313      4.178220
  H       1.829736     -0.371230      4.976982
  H       2.555083     -1.932672      4.529972
  H       3.980244     -0.669796      2.869185
  C       3.636272     -0.245814      3.820918
  C       3.458218      1.238399      3.616341
  O       2.522506      1.935061      3.898040
  O       4.606464      1.761520      3.051190
  H       4.394263      2.707000      2.964038
  N       4.604452     -0.390254      4.924135
  H       4.748981     -1.383697      5.078228
  H       5.494707      0.000831      4.629391
  C       2.696328      2.253221     -1.579975
  H       3.176638      2.853734     -0.807093
  H       3.458995      1.653529     -2.084935
  H       1.346832      2.547389     -3.203192
  C       2.052416      3.150987     -2.617282
  C       1.276007      4.281596     -1.989269
  O       1.232612      4.621918     -0.838095
  O       0.601263      4.966032     -2.974664
  H       0.156620      5.679911     -2.487192
  N       3.105516      3.786709     -3.431065
  H       3.638868      3.046999     -3.877302
  H       2.663425      4.327019     -4.169338
  C      -3.062873     -0.314688     -3.782490
  H      -2.520315      0.263642     -4.530810
  H      -3.314728     -1.289691     -4.211226
  H      -4.751518     -0.111551     -2.513838
  C      -4.366244      0.370872     -3.421416
  C      -4.173213      1.832148     -3.107028
  O      -3.211857      2.529089     -3.290375
  O      -5.340226      2.339816     -2.569537
  H      -5.121927      3.274954     -2.414583
  N      -5.298894      0.320165     -4.562877
  H      -5.448719     -0.657194     -4.794966
  H      -6.194996      0.700570     -4.271478
43
Coordinates from ORCA-job 3_Cu4_Cys3 E -8719.638460661876
  Cu     -1.668628     -1.799560     -0.410359
  S       1.277642     -1.149634      2.768108
  S      -2.092187     -0.707796     -2.264760
  Cu     -0.358061     -1.970688      1.540819
  Cu     -0.305930      0.255547     -1.586552
  Cu      1.428069      0.028739      0.990470
  S       1.448323      1.152381     -0.806814
  C       2.402307     -0.988774      4.193451
  H       1.904801     -0.477818      5.018389
  H       2.678824     -1.997442      4.510893
  H       3.958130     -0.575651      2.800225
  C       3.651686     -0.232282      3.795142
  C       3.367766      1.247555      3.699435
  O       2.445731      1.847570      4.183098
  O       4.408888      1.886261      3.089816
  H       4.165292      2.827255      3.103451
  N       4.703763     -0.380356      4.814937
  H       4.927923     -1.367504      4.897980
  H       5.546173      0.085784      4.489593
  C       2.667472      2.219696     -1.606225
  H       3.181486      2.812320     -0.849873
  H       3.403749      1.607528     -2.134005
  H       1.186115      2.532623     -3.111823
  C       1.961550      3.118120     -2.601823
  C       1.274882      4.264020     -1.902692
  O       1.418095      4.614741     -0.761186
  O       0.504794      4.955451     -2.789367
  H       0.124319      5.686630     -2.276652
  N       2.935530      3.723874     -3.524414
  H       3.403660      2.976819     -4.027844
  H       2.435189      4.275926     -4.215636
  C      -3.069114     -0.398606     -3.769226
  H      -2.473557      0.132044     -4.512195
  H      -3.357954     -1.370132     -4.180186
  H      -4.736203      0.005697     -2.505637
  C      -4.319141      0.392312     -3.443931
  C      -3.988609      1.849635     -3.230504
  O      -2.981817      2.428675     -3.547396
  O      -5.073028      2.505855     -2.720690
  H      -4.796168      3.435494     -2.659906
  N      -5.271354      0.349538     -4.566945
  H      -5.513474     -0.621490     -4.740457
  H      -6.128950      0.821427     -4.293070
43
Coordinates from ORCA-job 3_Cu4_Cys3 E -8719.641378431361
  Cu     -1.691010     -1.804003     -0.349201
  S       1.288948     -1.200796      2.797544
  S      -2.109484     -0.755484     -2.222565
  Cu     -0.371727     -1.977479      1.583564
  Cu     -0.358846      0.264125     -1.532397
  Cu      1.402093      0.035020      1.051594
  S       1.363825      1.209937     -0.724908
  C       2.476506     -1.063162      4.175350
  H       1.980668     -0.616706      5.037295
  H       2.825393     -2.065074      4.436663
  H       3.918881     -0.460971      2.724944
  C       3.645640     -0.200012      3.753915
  C       3.242848      1.259525      3.769717
  O       2.327927      1.747085      4.381606
  O       4.075579      1.991599      2.992774
  H       3.747643      2.905314      3.039928
  N       4.764160     -0.318606      4.703960
  H       5.075636     -1.285196      4.713980
  H       5.546787      0.234449      4.365243
  C       2.616815      2.176781     -1.601606
  H       3.179683      2.757096     -0.871636
  H       3.306134      1.521345     -2.139679
  H       1.054532      2.540239     -3.012385
  C       1.900574      3.088244     -2.578252
  C       1.334930      4.293325     -1.862468
  O       1.614774      4.671119     -0.753710
  O       0.450708      4.938988     -2.658989
  H       0.121939      5.690440     -2.140345
  N       2.833256      3.611149     -3.588573
  H       3.213145      2.828509     -4.112334
  H       2.316528      4.180555     -4.253038
  C      -3.052651     -0.449016     -3.750220
  H      -2.411105      0.048098     -4.477618
  H      -3.372163     -1.411166     -4.158308
  H      -4.703556      0.095299     -2.510040
  C      -4.256378      0.420762     -3.457337
  C      -3.825448      1.863343     -3.295567
  O      -2.785656      2.353894     -3.657108
  O      -4.799404      2.583391     -2.685469
  H      -4.461002      3.492311     -2.629924
  N      -5.204443      0.408579     -4.584313
  H      -5.515119     -0.547048     -4.732034
  H      -6.029576      0.945977     -4.332417
43
Coordinates from ORCA-job 3_Cu4_Cys3 E -8719.646028945941
  Cu     -1.673344     -1.860672     -0.329807
  S       1.315973     -1.284557      2.784196
  S      -2.103108     -0.818222     -2.192632
  Cu     -0.344656     -2.045709      1.576538
  Cu     -0.436348      0.287596     -1.460195
  Cu      1.348352      0.045456      1.117957
  S       1.209890      1.310073     -0.591145
  C       2.556403     -1.139102      4.116921
  H       2.064499     -0.767636      5.015813
  H       2.986953     -2.123093      4.316472
  H       3.897178     -0.369902      2.646046
  C       3.636277     -0.168027      3.691122
  C       3.112991      1.255478      3.769399
  O       2.224918      1.655526      4.479426
  O       3.804596      2.061494      2.933525
  H       3.403871      2.943474      3.017232
  N       4.789826     -0.220932      4.606447
  H       5.184540     -1.156084      4.570886
  H       5.511380      0.409019      4.266077
  C       2.510376      2.139960     -1.542194
  H       3.119511      2.714654     -0.845729
  H       3.145165      1.415805     -2.058086
  H       0.953174      2.553387     -2.946514
  C       1.841910      3.058255     -2.546979
  C       1.368044      4.330767     -1.872926
  O       1.724336      4.759586     -0.804127
  O       0.470124      4.967335     -2.658403
  H       0.199719      5.761899     -2.170003
  N       2.790723      3.478713     -3.590275
  H       3.104291      2.652704     -4.090940
  H       2.300635      4.055949     -4.268165
  C      -3.030188     -0.483758     -3.726948
  H      -2.359096     -0.016376     -4.447230
  H      -3.388476     -1.431719     -4.134557
  H      -4.663266      0.148432     -2.501239
  C      -4.191107      0.447013     -3.444581
  C      -3.688029      1.869482     -3.280994
  O      -2.643575      2.317698     -3.680187
  O      -4.606993      2.623794     -2.632688
  H      -4.228840      3.517456     -2.581733
  N      -5.127377      0.487607     -4.582259
  H      -5.488375     -0.449532     -4.733975
  H      -5.924893      1.068493     -4.337904
43
Coordinates from ORCA-job 3_Cu4_Cys3 E -8719.651401918636
  Cu     -1.638203     -1.914316     -0.340222
  S       1.348787     -1.340485      2.759633
  S      -2.080580     -0.863163     -2.190841
  Cu     -0.303485     -2.106262      1.548290
  Cu     -0.520349      0.335689     -1.388820
  Cu      1.276217      0.085893      1.182750
  S       1.029124      1.451149     -0.443260
  C       2.622486     -1.178691      4.061779
  H       2.138472     -0.861697      4.985727
  H       3.106619     -2.145666      4.216060
  H       3.896927     -0.306475      2.588095
  C       3.642545     -0.142867      3.641328
  C       3.048041      1.250664      3.761245
  O       2.181813      1.595570      4.525828
  O       3.651026      2.098111      2.899649
  H       3.207075      2.956674      3.007123
  N       4.812011     -0.157453      4.538333
  H       5.254570     -1.069414      4.472170
  H       5.494717      0.517034      4.202461
  C       2.373094      2.115788     -1.462758
  H       3.033927      2.683103     -0.808092
  H       2.942964      1.318095     -1.944254
  H       0.830566      2.564902     -2.873377
  C       1.755399      3.026836     -2.504921
  C       1.373099      4.357962     -1.886090
  O       1.793019      4.825200     -0.856773
  O       0.486322      5.001886     -2.677647
  H       0.279623      5.837428     -2.227941
  N       2.719270      3.336310     -3.572952
  H       2.971930      2.468885     -4.037195
  H       2.259178      3.910895     -4.274004
  C      -2.997200     -0.500048     -3.726115
  H      -2.308339     -0.054728     -4.443834
  H      -3.385437     -1.435989     -4.133493
  H      -4.612283      0.189200     -2.506117
  C      -4.124458      0.471232     -3.446342
  C      -3.567618      1.874366     -3.278435
  O      -2.518431      2.290823     -3.700099
  O      -4.439429      2.649167     -2.591496
  H      -4.027547      3.527660     -2.536067
  N      -5.051792      0.550799     -4.589784
  H      -5.446715     -0.371851     -4.746489
  H      -5.828973      1.159569     -4.347413
43
Coordinates from ORCA-job 3_Cu4_Cys3 E -8719.656965486578
  Cu     -1.563790     -1.983291     -0.393895
  S       1.405386     -1.396343      2.705285
  S      -2.029889     -0.897836     -2.216895
  Cu     -0.222111     -2.186503      1.476926
  Cu     -0.600940      0.388771     -1.319478
  Cu      1.199153      0.126715      1.237758
  S       0.830238      1.601917     -0.282190
  C       2.696345     -1.207216      3.988492
  H       2.215388     -0.952793      4.933341
  H       3.237414     -2.150059      4.096501
  H       3.904014     -0.220999      2.529978
  C       3.650367     -0.102494      3.589376
  C       2.979132      1.251362      3.755026
  O       2.121499      1.529839      4.555885
  O       3.498718      2.146708      2.887498
  H       3.005822      2.974630      3.020619
  N       4.827190     -0.078149      4.476826
  H       5.319533     -0.961379      4.378538
  H       5.468312      0.643114      4.156067
  C       2.206897      2.078668     -1.364550
  H       2.924921      2.631361     -0.758880
  H       2.698928      1.205695     -1.797851
  H       0.690360      2.568753     -2.791831
  C       1.651406      2.976110     -2.452460
  C       1.380142      4.364718     -1.904322
  O       1.857554      4.857710     -0.912476
  O       0.517336      5.025110     -2.709455
  H       0.386984      5.898884     -2.305431
  N       2.627669      3.152019     -3.539464
  H       2.808784      2.242889     -3.955211
  H       2.205503      3.718680     -4.270452
  C      -2.953148     -0.496466     -3.739316
  H      -2.258598     -0.066275     -4.460936
  H      -3.372045     -1.418601     -4.147702
  H      -4.537531      0.232660     -2.501554
  C      -4.047298      0.506819     -3.442607
  C      -3.441693      1.889060     -3.267133
  O      -2.395573      2.280961     -3.719399
  O      -4.268770      2.680230     -2.544673
  H      -3.827009      3.544339     -2.488232
  N      -4.979075      0.626888     -4.579235
  H      -5.404079     -0.281441     -4.741444
  H      -5.735463      1.257021     -4.325405
43
Coordinates from ORCA-job 3_Cu4_Cys3 E -8719.662072707904
  Cu     -1.458629     -2.074842     -0.491233
  S       1.463778     -1.437141      2.616479
  S      -1.948505     -0.925153     -2.269694
  Cu     -0.115839     -2.285402      1.361860
  Cu     -0.700102      0.432734     -1.242135
  Cu      1.083593      0.163368      1.291615
  S       0.562184      1.732327     -0.083868
  C       2.753344     -1.197625      3.895041
  H       2.288314     -1.004949      4.863419
  H       3.342291     -2.116823      3.954116
  H       3.936921     -0.145421      2.466392
  C       3.671090     -0.051717      3.525491
  C       2.968081      1.280555      3.705420
  O       2.110073      1.543029      4.510655
  O       3.508387      2.212834      2.869859
  H       2.998774      3.028425      3.025069
  N       4.839354     -0.024148      4.425562
  H       5.345237     -0.898153      4.309146
  H       5.469584      0.715411      4.123982
  C       1.961136      2.040574     -1.206358
  H       2.743485      2.561019     -0.650628
  H       2.358779      1.098820     -1.586761
  H       0.525820      2.557150     -2.712888
  C       1.503308      2.911593     -2.360113
  C       1.330963      4.347473     -1.905424
  O       1.819562      4.874721     -0.936779
  O       0.572134      5.040783     -2.801570
  H       0.548353      5.951421     -2.456862
  N       2.529598      2.941376     -3.416097
  H       2.651722      1.991091     -3.756128
  H       2.171308      3.480260     -4.201098
  C      -2.885155     -0.467624     -3.768548
  H      -2.203864     -0.054147     -4.513321
  H      -3.338841     -1.379960     -4.163998
  H      -4.446150      0.269904     -2.511721
  C      -3.958832      0.552304     -3.451560
  C      -3.332468      1.918362     -3.257287
  O      -2.296186      2.317807     -3.725283
  O      -4.151592      2.715431     -2.512486
  H      -3.683041      3.567354     -2.453774
  N      -4.892997      0.696602     -4.584183
  H      -5.324659     -0.208079     -4.751985
  H      -5.642328      1.330239     -4.316684
43
Coordinates from ORCA-job 3_Cu4_Cys3 E -8719.664746255336
  Cu     -1.385852     -2.211978     -0.529440
  S       1.508313     -1.482381      2.579213
  S      -1.883682     -1.057290     -2.306658
  Cu     -0.036762     -2.393488      1.314750
  Cu     -0.792214      0.365937     -1.198333
  Cu      0.974973      0.141340      1.329907
  S       0.324638      1.755947      0.032890
  C       2.788246     -1.165541      3.849788
  H       2.313846     -0.949383      4.807936
  H       3.403170     -2.064554      3.944749
  H       3.956745     -0.144906      2.385533
  C       3.667172     -0.005763      3.433038
  C       2.904803      1.302650      3.528765
  O       2.037113      1.571250      4.322223
  O       3.378989      2.193944      2.620276
  H       2.827305      2.990268      2.712884
  N       4.816351      0.121086      4.348215
  H       5.361379     -0.734579      4.289217
  H       5.421798      0.868293      4.016131
  C       1.718913      1.956734     -1.124727
  H       2.556361      2.401957     -0.584880
  H       2.033706      0.996603     -1.534821
  H       0.261021      2.594392     -2.561405
  C       1.272746      2.878555     -2.243538
  C       1.206026      4.313753     -1.774155
  O       1.759755      4.805414     -0.821023
  O       0.454761      5.041494     -2.644161
  H       0.492361      5.952749     -2.319674
  N       2.255586      2.862896     -3.339444
  H       2.309648      1.912116     -3.695213
  H       1.899220      3.431278     -4.104201
  C      -2.865814     -0.557650     -3.759766
  H      -2.189917     -0.272310     -4.566565
  H      -3.461674     -1.416874     -4.076839
  H      -4.214511      0.450782     -2.441083
  C      -3.754219      0.621982     -3.420347
  C      -2.912531      1.886352     -3.323120
  O      -1.870808      2.120672     -3.892162
  O      -3.531529      2.808247     -2.539826
  H      -2.941399      3.581930     -2.541491
  N      -4.728388      0.871177     -4.498948
  H      -5.302097      0.039177     -4.604037
  H      -5.355567      1.619501     -4.214023
43
Coordinates from ORCA-job 3_Cu4_Cys3 E -8719.667795112826
  Cu     -1.368728     -2.356598     -0.530786
  S       1.492158     -1.525616      2.585790
  S      -1.841707     -1.197386     -2.325242
  Cu     -0.022514     -2.506283      1.314628
  Cu     -0.862912      0.255197     -1.167352
  Cu      0.862079      0.082524      1.363768
  S       0.141311      1.689303      0.101098
  C       2.740998     -1.125685      3.861904
  H       2.258853     -0.822514      4.792130
  H       3.332326     -2.029030      4.038728
  H       3.986567     -0.284504      2.349880
  C       3.661761     -0.030325      3.364659
  C       2.929746      1.294261      3.292122
  O       2.061231      1.675539      4.038014
  O       3.447272      2.071324      2.301735
  H       2.910247      2.883429      2.291230
  N       4.779698      0.163336      4.305809
  H       5.300793     -0.707701      4.356142
  H       5.419005      0.855550      3.921213
  C       1.551859      2.004430     -1.030437
  H       2.377402      2.446354     -0.468962
  H       1.902837      1.076547     -1.482764
  H       0.082337      2.586633     -2.480948
  C       1.071304      2.919209     -2.142089
  C       0.927652      4.345217     -1.685409
  O       1.416827      4.877043     -0.717689
  O       0.192219      5.026008     -2.613138
  H       0.208549      5.949367     -2.333944
  N       2.068914      2.955762     -3.224037
  H       2.182599      2.005779     -3.568829
  H       1.687372      3.493315     -3.999227
  C      -2.890648     -0.645705     -3.709243
  H      -2.276041     -0.519190     -4.601668
  H      -3.637964     -1.420891     -3.896658
  H      -3.948837      0.632267     -2.355986
  C      -3.547748      0.680617     -3.373924
  C      -2.504840      1.792581     -3.402367
  O      -1.494655      1.846982     -4.074818
  O      -2.899437      2.833483     -2.622317
  H      -2.189772      3.495271     -2.704664
  N      -4.549648      1.038522     -4.393272
  H      -5.254450      0.306816     -4.410880
  H      -5.026030      1.890547     -4.106563
43
Coordinates from ORCA-job 3_Cu4_Cys3 E -8719.595850282612
  Cu     -1.078615     -2.768882     -0.941373
  S       1.547471     -1.822110      2.347116
  S      -1.479356     -1.468665     -2.745348
  Cu      0.238614     -2.981284      0.899511
  Cu     -0.810086     -0.049659     -1.281258
  Cu      0.632871     -0.252224      1.239368
  S      -0.123762      1.435930      0.160978
  C       2.626586     -1.199750      3.682506
  H       2.091384     -0.914944      4.589291
  H       3.311421     -2.026859      3.912550
  H       3.766536     -0.278202      2.132092
  C       3.429049     -0.023687      3.141230
  C       2.541870      1.198648      3.063092
  O       1.786332      1.555312      3.945761
  O       2.841069      1.997663      1.991707
  H       2.219500      2.757510      2.034887
  N       4.542546      0.305231      4.045853
  H       5.142648     -0.514316      4.115380
  H       5.113684      1.035963      3.622404
  C       1.385312      2.356558     -0.619922
  H       1.850391      3.097745      0.062366
  H       2.160611      1.580296     -0.820569
  H       0.475898      2.161377     -2.592469
  C       1.059958      2.911886     -2.005197
  C       0.293680      4.238212     -1.936357
  O       0.105378      4.987329     -0.958398
  O      -0.249704      4.559166     -3.195382
  H      -0.492348      5.535829     -3.166763
  N       2.322043      3.193214     -2.734638
  H       2.887993      2.308071     -2.732648
  H       2.060375      3.332566     -3.731679
  C      -3.001929     -0.568411     -3.376744
  H      -3.062726     -0.673764     -4.511310
  H      -3.920282     -1.073050     -2.935277
  H      -2.740162      1.073704     -1.876851
  C      -3.018551      0.925775     -2.966807
  C      -1.949415      1.652333     -3.837901
  O      -1.671976      1.310310     -5.056965
  O      -1.483286      2.842969     -3.249988
  H      -0.828864      3.255972     -3.924288
  N      -4.363437      1.509669     -3.282099
  H      -5.108126      1.011814     -2.727581
  H      -4.372610      2.486540     -2.922640
43
Coordinates from ORCA-job 3_Cu4_Cys3 E -8719.640501449927
  Cu     -1.016698     -2.683773     -1.062594
  S       1.542263     -1.741147      2.283769
  S      -1.427391     -1.377880     -2.859379
  Cu      0.269808     -2.896506      0.806763
  Cu     -0.741010      0.031786     -1.383035
  Cu      0.669444     -0.174969      1.155097
  S      -0.039049      1.507633      0.060301
  C       2.595556     -1.184314      3.672341
  H       2.037182     -0.929811      4.576263
  H       3.253297     -2.037666      3.884500
  H       3.835527     -0.205106      2.233020
  C       3.456138     -0.003131      3.239580
  C       2.616880      1.252681      3.199261
  O       1.820518      1.586841      4.054857
  O       3.011996      2.114466      2.193677
  H       2.409740      2.890190      2.264986
  N       4.530743      0.225362      4.218858
  H       5.096099     -0.621323      4.261460
  H       5.145982      0.961021      3.872083
  C       1.515613      2.361573     -0.693634
  H       1.963952      3.100087     -0.002660
  H       2.253834      1.538792     -0.810433
  H       0.855984      2.225547     -2.766373
  C       1.404223      2.930870     -2.104853
  C       0.734162      4.312213     -2.125162
  O       0.467045      5.058383     -1.173115
  O       0.407726      4.717778     -3.440195
  H       0.209262      5.701797     -3.396740
  N       2.770631      3.124902     -2.652865
  H       3.261525      2.205726     -2.579180
  H       2.658432      3.280465     -3.671290
  C      -3.032626     -0.631066     -3.500730
  H      -3.056825     -0.699479     -4.631130
  H      -3.863425     -1.284814     -3.100224
  H      -3.184149      0.889576     -1.897188
  C      -3.382768      0.783287     -3.001722
  C      -2.532687      1.835005     -3.719010
  O      -2.131153      1.759632     -4.922103
  O      -2.466535      3.017772     -2.974624
  H      -1.945091      3.669454     -3.559346
  N      -4.813011      1.061651     -3.333349
  H      -5.422472      0.356279     -2.856888
  H      -5.060692      1.972000     -2.903353
43
Coordinates from ORCA-job 3_Cu4_Cys3 E -8719.672923035048
  Cu     -1.064524     -2.583146     -1.022561
  S       1.548611     -1.680906      2.290229
  S      -1.462511     -1.330213     -2.833265
  Cu      0.235820     -2.789388      0.841989
  Cu     -0.727909      0.106083     -1.403086
  Cu      0.728538     -0.087143      1.140168
  S       0.019108      1.587763      0.003281
  C       2.634070     -1.205989      3.691277
  H       2.052579     -0.960442      4.581829
  H       3.257247     -2.080632      3.902298
  H       3.933946     -0.177990      2.330939
  C       3.525171     -0.025509      3.334569
  C       2.697424      1.245490      3.343870
  O       1.866798      1.523593      4.181526
  O       3.106650      2.136913      2.399446
  H       2.513150      2.907314      2.485458
  N       4.563692      0.151868      4.360519
  H       5.124708     -0.696052      4.388258
  H       5.193658      0.897472      4.071865
  C       1.533351      2.313172     -0.824576
  H       2.020670      3.028606     -0.163656
  H       2.231602      1.481890     -0.969168
  H       0.630153      2.263890     -2.786556
  C       1.275977      2.919158     -2.190758
  C       0.644684      4.291665     -2.089266
  O       0.532760      4.979458     -1.099759
  O       0.233810      4.741082     -3.330438
  H       0.065082      5.693759     -3.248748
  N       2.567328      3.141900     -2.877236
  H       3.054648      2.247647     -2.901168
  H       2.360281      3.353514     -3.852459
  C      -3.055859     -0.634622     -3.488245
  H      -3.048344     -0.731370     -4.579555
  H      -3.876641     -1.255571     -3.098871
  H      -3.181271      0.905670     -1.968812
  C      -3.362662      0.785665     -3.046666
  C      -2.477357      1.783792     -3.761317
  O      -2.026889      1.680659     -4.888577
  O      -2.339473      2.918318     -3.030326
  H      -1.771122      3.510827     -3.567192
  N      -4.742713      1.124950     -3.439837
  H      -5.374425      0.475988     -2.975087
  H      -4.961834      2.042651     -3.054700
43
Coordinates from ORCA-job 3_Cu4_Cys3 E -8719.679011518010
  Cu     -1.101693     -2.505436     -0.968028
  S       1.549532     -1.643422      2.318224
  S      -1.468796     -1.288655     -2.791491
  Cu      0.205384     -2.723838      0.896174
  Cu     -0.694946      0.148292     -1.388512
  Cu      0.772382     -0.044403      1.147888
  S       0.096270      1.643124     -0.022165
  C       2.662226     -1.196372      3.704981
  H       2.078802     -0.958364      4.595315
  H       3.292804     -2.065475      3.909118
  H       3.922482     -0.137861      2.338130
  C       3.525523     -0.001734      3.349801
  C       2.675467      1.258603      3.373448
  O       1.823616      1.510060      4.191339
  O       3.018704      2.115501      2.385020
  H       2.399197      2.862076      2.454872
  N       4.570174      0.190377      4.370700
  H       5.149840     -0.644138      4.390477
  H       5.180479      0.952720      4.086264
  C       1.598644      2.211767     -0.905610
  H       2.153498      2.893560     -0.261901
  H       2.233365      1.346962     -1.104726
  H       0.467771      2.297564     -2.724305
  C       1.234515      2.887062     -2.206825
  C       0.698258      4.281419     -1.977690
  O       0.768198      4.934717     -0.972074
  O       0.152144      4.770621     -3.132306
  H      -0.024942      5.710877     -2.984741
  N       2.449247      3.077346     -3.029990
  H       2.886078      2.167559     -3.152063
  H       2.160496      3.372149     -3.959941
  C      -3.048170     -0.641565     -3.484009
  H      -2.986027     -0.728721     -4.566992
  H      -3.872970     -1.268578     -3.134699
  H      -3.223926      0.889191     -1.989136
  C      -3.351579      0.781486     -3.071723
  C      -2.408685      1.769943     -3.731190
  O      -1.859517      1.652126     -4.793530
  O      -2.313110      2.892935     -2.990298
  H      -1.698854      3.481588     -3.463174
  N      -4.699095      1.153994     -3.543459
  H      -5.369589      0.517663     -3.120991
  H      -4.925211      2.079064     -3.184545
43
Coordinates from ORCA-job 3_Cu4_Cys3 E -8719.680806881637
  Cu     -1.098527     -2.493771     -1.065761
  S       1.503055     -1.627884      2.245317
  S      -1.406653     -1.314366     -2.929334
  Cu      0.183418     -2.724278      0.815275
  Cu     -0.669910      0.123221     -1.493685
  Cu      0.732910     -0.050158      1.050064
  S       0.091281      1.645169     -0.138387
  C       2.581570     -1.163222      3.652184
  H       1.978636     -0.936095      4.532220
  H       3.224149     -2.020385      3.868186
  H       3.847693     -0.084796      2.310107
  C       3.434159      0.042929      3.316525
  C       2.577160      1.297814      3.324819
  O       1.709647      1.552085      4.121545
  O       2.974647      2.169679      2.369118
  H       2.357876      2.919094      2.430180
  N       4.461781      0.237358      4.356428
  H       5.046612     -0.592885      4.380555
  H       5.069740      1.007218      4.088365
  C       1.619451      2.150638     -0.995834
  H       2.184494      2.814955     -0.342072
  H       2.226663      1.270798     -1.203005
  H       0.488008      2.323538     -2.799103
  C       1.277890      2.876446     -2.275895
  C       0.774047      4.271289     -1.984824
  O       0.883307      4.890502     -0.963044
  O       0.167960      4.795250     -3.090598
  H      -0.043050      5.716622     -2.864073
  N       2.491698      3.070909     -3.095635
  H       2.908261      2.158039     -3.251152
  H       2.215163      3.416795     -4.010335
  C      -3.026723     -0.654883     -3.472239
  H      -3.029988     -0.660787     -4.560025
  H      -3.819931     -1.314326     -3.116036
  H      -3.151706      0.760508     -1.877236
  C      -3.301951      0.736928     -2.961420
  C      -2.346173      1.741183     -3.574910
  O      -1.767830      1.634753     -4.623587
  O      -2.242795      2.835654     -2.785455
  H      -1.602198      3.428776     -3.214459
  N      -4.650620      1.167761     -3.377045
  H      -5.321791      0.514080     -2.985995
  H      -4.853444      2.069627     -2.954107
43
Coordinates from ORCA-job 3_Cu4_Cys3 E -8719.681696747130
  Cu     -1.168407     -2.431149     -0.978174
  S       1.501571     -1.618102      2.286650
  S      -1.409299     -1.264830     -2.853500
  Cu      0.126186     -2.708297      0.899916
  Cu     -0.639512      0.129930     -1.417923
  Cu      0.751594     -0.060803      1.072494
  S       0.182675      1.659702     -0.131135
  C       2.604391     -1.155060      3.673433
  H       2.020697     -0.935607      4.569160
  H       3.257578     -2.008771      3.872779
  H       3.844778     -0.071171      2.313362
  C       3.451496      0.051397      3.328759
  C       2.609064      1.313235      3.349406
  O       1.732231      1.576205      4.130487
  O       3.045492      2.191869      2.406406
  H       2.433175      2.948131      2.468787
  N       4.499698      0.228770      4.353105
  H       5.076620     -0.607223      4.357351
  H       5.107046      0.998715      4.083467
  C       1.715780      2.082184     -1.005282
  H       2.322018      2.714371     -0.353529
  H       2.280711      1.190698     -1.268826
  H       0.502491      2.317239     -2.728616
  C       1.335207      2.850834     -2.252312
  C       0.845501      4.233884     -1.901964
  O       1.047485      4.872928     -0.903008
  O       0.085740      4.713742     -2.935876
  H      -0.188010      5.601463     -2.640205
  N       2.503740      3.060364     -3.123613
  H       2.904381      2.149108     -3.325030
  H       2.197356      3.453998     -4.008677
  C      -3.016762     -0.658585     -3.460803
  H      -2.980007     -0.680049     -4.552084
  H      -3.804454     -1.333541     -3.120023
  H      -3.260599      0.815804     -1.937204
  C      -3.347357      0.755578     -3.029334
  C      -2.395879      1.782287     -3.622731
  O      -1.669980      1.633707     -4.576449
  O      -2.536661      2.975182     -2.968651
  H      -1.910823      3.601663     -3.382687
  N      -4.686207      1.127943     -3.527397
  H      -5.354007      0.463812     -3.146689
  H      -4.938759      2.040228     -3.158202
43
Coordinates from ORCA-job 3_Cu4_Cys3 E -8719.683093626352
  Cu     -1.185761     -2.453291     -0.978497
  S       1.491802     -1.655544      2.283910
  S      -1.390804     -1.304257     -2.880825
  Cu      0.095640     -2.752914      0.908618
  Cu     -0.643872      0.086044     -1.409131
  Cu      0.717709     -0.108134      1.068142
  S       0.156347      1.625841     -0.115863
  C       2.603984     -1.169689      3.653459
  H       2.029645     -0.953165      4.555882
  H       3.275504     -2.010440      3.849203
  H       3.812195     -0.084059      2.263478
  C       3.418999      0.050574      3.276845
  C       2.536966      1.284888      3.272143
  O       1.638197      1.523057      4.039064
  O       2.896896      2.132528      2.270965
  H       2.243804      2.855876      2.302485
  N       4.463229      0.286602      4.290701
  H       5.066546     -0.530441      4.312730
  H       5.045897      1.067394      3.998169
  C       1.699965      2.115091     -0.963621
  H       2.272126      2.770683     -0.305188
  H       2.303254      1.241073     -1.207122
  H       0.547888      2.285503     -2.747027
  C       1.331132      2.858202     -2.235367
  C       0.763754      4.219778     -1.897391
  O       0.972567      4.885427     -0.915308
  O       0.072761      4.725138     -2.969013
  H      -0.173980      5.627526     -2.690099
  N       2.513831      3.113790     -3.071260
  H       2.962433      2.220419     -3.252922
  H       2.214514      3.478423     -3.971523
  C      -3.009841     -0.651308     -3.416843
  H      -3.026241     -0.664537     -4.510041
  H      -3.798143     -1.310553     -3.045657
  H      -3.144311      0.830437     -1.880024
  C      -3.281735      0.768334     -2.968159
  C      -2.317105      1.742037     -3.619968
  O      -1.650438      1.534519     -4.609393
  O      -2.369465      2.950815     -2.994182
  H      -1.720144      3.527301     -3.441650
  N      -4.628954      1.186887     -3.398048
  H      -5.301168      0.548777     -2.981164
  H      -4.827641      2.107150     -3.014867
43
Coordinates from ORCA-job 3_Cu4_Cys3 E -8719.684188282439
  Cu     -1.243051     -2.429423     -0.959585
  S       1.463988     -1.639197      2.273612
  S      -1.407889     -1.328368     -2.891434
  Cu      0.022769     -2.724559      0.938523
  Cu     -0.655153      0.078843     -1.431254
  Cu      0.705657     -0.093511      1.042377
  S       0.150009      1.623205     -0.157338
  C       2.596764     -1.164713      3.632474
  H       2.037251     -0.967692      4.548550
  H       3.277328     -2.004162      3.801156
  H       3.772101     -0.043360      2.240878
  C       3.397118      0.068824      3.263617
  C       2.503340      1.295802      3.304734
  O       1.630345      1.512675      4.109214
  O       2.885895      2.209968      2.373017
  H       2.248218      2.942402      2.453311
  N       4.460592      0.297775      4.257868
  H       5.073372     -0.513176      4.251295
  H       5.028998      1.088674      3.964216
  C       1.699588      2.101803     -1.021270
  H       2.297093      2.728908     -0.359320
  H       2.275402      1.208872     -1.274649
  H       0.603224      2.310851     -2.851433
  C       1.370464      2.864857     -2.295663
  C       0.811818      4.234056     -1.944766
  O       1.008942      4.868695     -0.940619
  O       0.069985      4.758459     -2.976567
  H      -0.162922      5.656326     -2.677278
  N       2.583512      3.114256     -3.088736
  H       3.024242      2.216291     -3.273250
  H       2.311207      3.487324     -3.995251
  C      -3.017796     -0.660270     -3.464443
  H      -3.013380     -0.652581     -4.557802
  H      -3.814701     -1.326567     -3.122422
  H      -3.200072      0.756094     -1.870022
  C      -3.311828      0.736833     -2.963701
  C      -2.336859      1.737658     -3.541744
  O      -1.645315      1.591328     -4.516938
  O      -2.344218      2.874194     -2.808315
  H      -1.637214      3.435829     -3.175481
  N      -4.649960      1.166573     -3.410528
  H      -5.333030      0.511287     -3.037115
  H      -4.857851      2.070700     -2.992278
43
Coordinates from ORCA-job 3_Cu4_Cys3 E -8719.685157638371
  Cu     -1.254168     -2.420249     -0.963965
  S       1.426152     -1.623472      2.278900
  S      -1.361458     -1.348457     -2.915216
  Cu     -0.035560     -2.715190      0.968018
  Cu     -0.645847      0.055959     -1.435156
  Cu      0.666126     -0.098378      1.025948
  S       0.123937      1.624982     -0.174554
  C       2.548867     -1.132021      3.640582
  H       1.980037     -0.890246      4.540095
  H       3.205012     -1.981762      3.849066
  H       3.782856     -0.093480      2.235495
  C       3.387234      0.066905      3.244134
  C       2.524602      1.316153      3.216061
  O       1.626263      1.578154      3.977732
  O       2.958564      2.186283      2.264925
  H       2.333130      2.933109      2.293349
  N       4.432942      0.308717      4.254085
  H       5.025060     -0.516484      4.293550
  H       5.027551      1.073417      3.943443
  C       1.681884      2.067057     -1.030112
  H       2.304059      2.654364     -0.355320
  H       2.226000      1.166572     -1.318337
  H       0.560209      2.351022     -2.829729
  C       1.349517      2.872333     -2.274428
  C       0.830011      4.239112     -1.877051
  O       1.063698      4.846679     -0.865177
  O       0.014767      4.762956     -2.852289
  H      -0.212794      5.650459     -2.526390
  N       2.556098      3.119929     -3.074486
  H       2.978692      2.220515     -3.284833
  H       2.282303      3.520194     -3.967929
  C      -2.973818     -0.674760     -3.462858
  H      -2.987122     -0.667322     -4.554229
  H      -3.768065     -1.335339     -3.108906
  H      -3.103843      0.740678     -1.865723
  C      -3.249545      0.724155     -2.953569
  C      -2.295537      1.734455     -3.555595
  O      -1.637049      1.603290     -4.555317
  O      -2.347263      2.892955     -2.858969
  H      -1.680101      3.483106     -3.256312
  N      -4.600735      1.152194     -3.356787
  H      -5.269311      0.497157     -2.962130
  H      -4.795372      2.056080     -2.934375
43
Coordinates from ORCA-job 3_Cu4_Cys3 E -8719.685913962066
  Cu     -1.327548     -2.334323     -0.861995
  S       1.420626     -1.592038      2.322823
  S      -1.387365     -1.310432     -2.826864
  Cu     -0.128351     -2.646798      1.086551
  Cu     -0.644779      0.084779     -1.358128
  Cu      0.667275     -0.071085      1.061226
  S       0.159104      1.665084     -0.143035
  C       2.586230     -1.122940      3.655988
  H       2.043342     -0.883673      4.571812
  H       3.243316     -1.977244      3.839991
  H       3.775704     -0.081705      2.218112
  C       3.417796      0.072826      3.242165
  C       2.568882      1.331589      3.252885
  O       1.683476      1.590166      4.028377
  O       2.988380      2.201250      2.296349
  H       2.368822      2.952292      2.340325
  N       4.502698      0.297640      4.215579
  H       5.089913     -0.531534      4.226307
  H       5.090429      1.061364      3.890065
  C       1.707363      2.029362     -1.034969
  H       2.364695      2.602243     -0.380072
  H       2.210657      1.112269     -1.340863
  H       0.530769      2.337865     -2.785868
  C       1.346324      2.848794     -2.258190
  C       0.844328      4.207846     -1.817521
  O       1.185792      4.834039     -0.847451
  O      -0.041651      4.725287     -2.729076
  H      -0.265180      5.603650     -2.367432
  N       2.526556      3.099966     -3.094765
  H       2.940338      2.201761     -3.328678
  H       2.230149      3.514994     -3.974545
  C      -2.966714     -0.678981     -3.494388
  H      -2.890937     -0.664886     -4.584112
  H      -3.770018     -1.361376     -3.206959
  H      -3.251749      0.744507     -1.928165
  C      -3.300888      0.720851     -3.025125
  C      -2.306606      1.742282     -3.549245
  O      -1.533372      1.597040     -4.469281
  O      -2.452510      2.912391     -2.875504
  H      -1.761323      3.523040     -3.203012
  N      -4.617793      1.130891     -3.547175
  H      -5.312173      0.473939     -3.203100
  H      -4.856024      2.038789     -3.157398
43
Coordinates from ORCA-job 3_Cu4_Cys3 E -8719.687018502620
  Cu     -1.325417     -2.321887     -0.910935
  S       1.389263     -1.592496      2.288271
  S      -1.345997     -1.336641     -2.896385
  Cu     -0.186724     -2.633569      1.075805
  Cu     -0.609072      0.053073     -1.411564
  Cu      0.654733     -0.086896      0.997961
  S       0.178889      1.645203     -0.210745
  C       2.533842     -1.117565      3.637773
  H       1.980343     -0.880319      4.547934
  H       3.193172     -1.968978      3.827851
  H       3.734120     -0.076868      2.209731
  C       3.362674      0.081763      3.228332
  C       2.504955      1.334502      3.221032
  O       1.598910      1.585299      3.975936
  O       2.938265      2.208878      2.273300
  H       2.313342      2.956311      2.304163
  N       4.434655      0.321354      4.212412
  H       5.027968     -0.503478      4.235435
  H       5.020404      1.086574      3.886267
  C       1.737257      2.023708     -1.088506
  H       2.394622      2.581934     -0.421064
  H       2.236569      1.106984     -1.403228
  H       0.614048      2.342738     -2.875542
  C       1.399323      2.857663     -2.309253
  C       0.859694      4.198869     -1.855757
  O       1.204707      4.832082     -0.891360
  O      -0.051010      4.703881     -2.751786
  H      -0.291591      5.573144     -2.378977
  N       2.602848      3.141461     -3.102387
  H       3.041806      2.253533     -3.331364
  H       2.326933      3.555624     -3.989730
  C      -2.945918     -0.678639     -3.490185
  H      -2.914041     -0.634888     -4.581135
  H      -3.738736     -1.368150     -3.190469
  H      -3.165336      0.684589     -1.860852
  C      -3.266447      0.700614     -2.954189
  C      -2.304903      1.748944     -3.482247
  O      -1.575924      1.649118     -4.442808
  O      -2.421593      2.886001     -2.752372
  H      -1.740441      3.509692     -3.075585
  N      -4.608694      1.118774     -3.398421
  H      -5.283025      0.447279     -3.042106
  H      -4.830488      2.012566     -2.967611
43
Coordinates from ORCA-job 3_Cu4_Cys3 E -8719.687647814770
  Cu     -1.348000     -2.291815     -0.889004
  S       1.372980     -1.589521      2.277408
  S      -1.338657     -1.375355     -2.901352
  Cu     -0.282235     -2.592941      1.142022
  Cu     -0.592415      0.013975     -1.401214
  Cu      0.634962     -0.098980      0.957116
  S       0.178951      1.637323     -0.237574
  C       2.477090     -1.097281      3.654058
  H       1.898919     -0.806432      4.532425
  H       3.103002     -1.959631      3.899495
  H       3.751028     -0.158813      2.220590
  C       3.347475      0.061874      3.214791
  C       2.512548      1.326054      3.111678
  O       1.586857      1.624739      3.826305
  O       3.009068      2.160639      2.164211
  H       2.407834      2.926417      2.139954
  N       4.391247      0.340051      4.218227
  H       4.969446     -0.490882      4.309390
  H       5.001954      1.073519      3.865544
  C       1.732657      2.040957     -1.133505
  H       2.412325      2.574073     -0.469064
  H       2.215680      1.122656     -1.471595
  H       0.617208      2.390659     -2.928800
  C       1.386326      2.898167     -2.337636
  C       0.840505      4.225125     -1.843238
  O       1.245189      4.851371     -0.898135
  O      -0.182191      4.703725     -2.622744
  H      -0.405821      5.566611     -2.228652
  N       2.591880      3.204821     -3.121214
  H       3.045286      2.324273     -3.350857
  H       2.312701      3.606642     -4.013384
  C      -2.929055     -0.686601     -3.498876
  H      -2.884360     -0.614637     -4.586724
  H      -3.729301     -1.379863     -3.229886
  H      -3.154084      0.634202     -1.831395
  C      -3.241562      0.675916     -2.924896
  C      -2.247214      1.706246     -3.420492
  O      -1.514481      1.593895     -4.376660
  O      -2.319047      2.821914     -2.670618
  H      -1.595048      3.412119     -2.953680
  N      -4.568028      1.131330     -3.374927
  H      -5.262216      0.473057     -3.032814
  H      -4.771419      2.022180     -2.928636
43
Coordinates from ORCA-job 3_Cu4_Cys3 E -8719.689105605317
  Cu     -1.345514     -2.241411     -0.898038
  S       1.386268     -1.579393      2.234435
  S      -1.294632     -1.367314     -2.923077
  Cu     -0.334937     -2.524517      1.163986
  Cu     -0.563110      0.021803     -1.415286
  Cu      0.655510     -0.077842      0.918837
  S       0.207563      1.655630     -0.275406
  C       2.438796     -1.082905      3.650640
  H       1.832317     -0.783646      4.507099
  H       3.050377     -1.948153      3.920524
  H       3.764526     -0.164287      2.253581
  C       3.331509      0.067549      3.232894
  C       2.511594      1.338173      3.094846
  O       1.562824      1.648349      3.773986
  O       3.043686      2.160344      2.153395
  H       2.449317      2.930793      2.102902
  N       4.346386      0.344692      4.266342
  H       4.914400     -0.490556      4.381371
  H       4.973750      1.069759      3.925290
  C       1.755520      2.013216     -1.204316
  H       2.476328      2.501957     -0.547786
  H       2.186573      1.079961     -1.571910
  H       0.633081      2.434011     -2.981050
  C       1.422142      2.905606     -2.386315
  C       0.921450      4.237536     -1.858339
  O       1.398047      4.862484     -0.945817
  O      -0.154125      4.720177     -2.562072
  H      -0.357249      5.578611     -2.147713
  N       2.632442      3.185420     -3.175627
  H       3.057788      2.292590     -3.414657
  H       2.357621      3.598868     -4.064397
  C      -2.883326     -0.683855     -3.534634
  H      -2.816694     -0.575124     -4.618865
  H      -3.672459     -1.404964     -3.305979
  H      -3.178705      0.552392     -1.813691
  C      -3.254414      0.640830     -2.905567
  C      -2.304899      1.742866     -3.329205
  O      -1.552916      1.725115     -4.275837
  O      -2.459198      2.814066     -2.528335
  H      -1.762832      3.458483     -2.760779
  N      -4.593807      1.059200     -3.355156
  H      -5.265133      0.360846     -3.046048
  H      -4.837882      1.924419     -2.878587
43
Coordinates from ORCA-job 3_Cu4_Cys3 E -8719.690799454193
  Cu     -1.312845     -2.246395     -0.917851
  S       1.473662     -1.622693      2.165734
  S      -1.295489     -1.370277     -2.943287
  Cu     -0.294731     -2.524095      1.141244
  Cu     -0.518481      0.002518     -1.442984
  Cu      0.739601     -0.107847      0.859788
  S       0.285098      1.634595     -0.320794
  C       2.414390     -1.089066      3.646435
  H       1.747258     -0.789991      4.456643
  H       3.017740     -1.942524      3.967487
  H       3.804927     -0.153340      2.324973
  C       3.317101      0.071549      3.280052
  C       2.494143      1.335096      3.103627
  O       1.513371      1.637814      3.738747
  O       3.054124      2.155399      2.175510
  H       2.451936      2.918544      2.096912
  N       4.272193      0.351177      4.368703
  H       4.838256     -0.481050      4.511539
  H       4.912134      1.082179      4.065719
  C       1.806095      1.995731     -1.285152
  H       2.547565      2.469821     -0.639618
  H       2.223078      1.069876     -1.684642
  H       0.623689      2.453387     -3.009082
  C       1.436305      2.912384     -2.435523
  C       0.953692      4.230602     -1.867298
  O       1.472118      4.857568     -0.977319
  O      -0.145754      4.707794     -2.535143
  H      -0.352129      5.557185     -2.104483
  N       2.623292      3.205037     -3.256122
  H       3.043375      2.314754     -3.514788
  H       2.323599      3.630548     -4.131076
  C      -2.887957     -0.676183     -3.523983
  H      -2.833049     -0.556614     -4.608523
  H      -3.675126     -1.399598     -3.292903
  H      -3.144718      0.547230     -1.787617
  C      -3.253002      0.644070     -2.876428
  C      -2.337244      1.772241     -3.316683
  O      -1.606114      1.777418     -4.281684
  O      -2.495338      2.837783     -2.500912
  H      -1.826971      3.507340     -2.753045
  N      -4.612285      1.043594     -3.284195
  H      -5.262977      0.333570     -2.956401
  H      -4.856546      1.904651     -2.799937
43
Coordinates from ORCA-job 3_Cu4_Cys3 E -8719.693532600128
  Cu     -1.271588     -2.272222     -0.921905
  S       1.642954     -1.739390      2.055703
  S      -1.309210     -1.385117     -2.948355
  Cu     -0.211729     -2.547766      1.115094
  Cu     -0.452363     -0.033749     -1.465844
  Cu      0.893536     -0.183073      0.788576
  S       0.420179      1.585029     -0.356130
  C       2.366213     -1.084021      3.608574
  H       1.596336     -0.764414      4.312479
  H       2.945271     -1.898778      4.051369
  H       3.872679     -0.154605      2.413520
  C       3.276143      0.088655      3.300284
  C       2.448663      1.322963      2.991810
  O       1.406400      1.628322      3.515353
  O       3.062342      2.099435      2.059049
  H       2.442909      2.833320      1.885730
  N       4.095236      0.423566      4.480945
  H       4.655573     -0.391422      4.714182
  H       4.750733      1.160558      4.231154
  C       1.888922      1.965468     -1.374156
  H       2.652636      2.433546     -0.749246
  H       2.295935      1.055615     -1.814031
  H       0.613548      2.475460     -3.007326
  C       1.460789      2.918252     -2.470752
  C       1.004091      4.210499     -1.836430
  O       1.562933      4.823310     -0.960341
  O      -0.113697      4.691748     -2.462261
  H      -0.325932      5.519986     -1.994612
  N       2.607025      3.241174     -3.337207
  H       3.020931      2.359451     -3.629914
  H       2.268524      3.691111     -4.184214
  C      -2.895832     -0.661129     -3.487131
  H      -2.845733     -0.507193     -4.567412
  H      -3.686086     -1.385915     -3.272931
  H      -3.121175      0.524326     -1.724975
  C      -3.246093      0.648447     -2.809154
  C      -2.344773      1.794619     -3.242100
  O      -1.619137      1.814928     -4.212026
  O      -2.522146      2.861777     -2.419896
  H      -1.880904      3.552474     -2.689597
  N      -4.614763      1.051194     -3.186168
  H      -5.254418      0.332235     -2.857702
  H      -4.856938      1.903108     -2.686366
43
Coordinates from ORCA-job 3_Cu4_Cys3 E -8719.694365848665
  Cu     -1.206355     -2.352701     -0.925940
  S       1.867407     -1.930121      1.927274
  S      -1.331981     -1.430056     -2.948466
  Cu     -0.072158     -2.633675      1.066650
  Cu     -0.368580     -0.109777     -1.489786
  Cu      1.090905     -0.321637      0.707500
  S       0.587798      1.483965     -0.382134
  C       2.321818     -1.085365      3.492028
  H       1.445966     -0.800377      4.075967
  H       2.912048     -1.805287      4.065746
  H       3.842565     -0.046648      2.399741
  C       3.145032      0.160348      3.219395
  C       2.237523      1.303374      2.803066
  O       1.140203      1.532293      3.245539
  O       2.841571      2.096187      1.878972
  H       2.163958      2.754806      1.632301
  N       3.814015      0.594617      4.460329
  H       4.418961     -0.160900      4.768553
  H       4.420077      1.385247      4.255046
  C       1.998287      1.896732     -1.453580
  H       2.789697      2.344076     -0.847265
  H       2.387882      1.009982     -1.950624
  H       0.625862      2.491613     -2.971924
  C       1.514078      2.902465     -2.476316
  C       1.106141      4.165120     -1.759002
  O       1.700369      4.729968     -0.873690
  O      -0.019535      4.680033     -2.335728
  H      -0.216594      5.487556     -1.828939
  N       2.610220      3.257965     -3.391803
  H       3.004362      2.387430     -3.737436
  H       2.230268      3.749287     -4.196074
  C      -2.910133     -0.639049     -3.395641
  H      -2.893458     -0.449184     -4.471466
  H      -3.717434     -1.342724     -3.175742
  H      -3.021980      0.512019     -1.601799
  C      -3.189475      0.666803     -2.676810
  C      -2.279995      1.800135     -3.130842
  O      -1.584835      1.810806     -4.122881
  O      -2.414041      2.874324     -2.301631
  H      -1.781367      3.554727     -2.613874
  N      -4.563500      1.113089     -2.983990
  H      -5.204308      0.403545     -2.639073
  H      -4.763300      1.960773     -2.460012
43
Coordinates from ORCA-job 3_Cu4_Cys3 E -8719.694141854612
  Cu     -1.259609     -2.378782     -0.916411
  S       1.844481     -1.875649      1.907142
  S      -1.408980     -1.487011     -2.972394
  Cu     -0.100669     -2.587445      1.070326
  Cu     -0.424426     -0.108303     -1.565288
  Cu      1.072204     -0.279184      0.662457
  S       0.547116      1.507662     -0.462785
  C       2.297670     -1.067787      3.495007
  H       1.420157     -0.751892      4.059014
  H       2.821798     -1.832166      4.076477
  H       3.935994     -0.078383      2.514062
  C       3.228927      0.122524      3.326585
  C       2.442938      1.375917      2.988821
  O       1.349587      1.658367      3.409523
  O       3.168961      2.209232      2.202496
  H       2.557833      2.940229      1.991110
  N       3.887959      0.396763      4.616355
  H       4.415706     -0.430622      4.876489
  H       4.562279      1.148568      4.499889
  C       1.950069      1.954120     -1.516272
  H       2.706048      2.449649     -0.903936
  H       2.390332      1.078194     -1.989179
  H       0.579638      2.488027     -3.061353
  C       1.445091      2.933921     -2.556411
  C       0.972921      4.184028     -1.847508
  O       1.488115      4.736469     -0.910470
  O      -0.129293      4.686014     -2.474676
  H      -0.357232      5.486173     -1.970260
  N       2.537564      3.335699     -3.451382
  H       2.974587      2.486683     -3.792299
  H       2.154046      3.821063     -4.255706
  C      -2.973946     -0.673024     -3.418459
  H      -2.952220     -0.472177     -4.490454
  H      -3.796790     -1.357890     -3.206622
  H      -3.074364      0.487999     -1.634848
  C      -3.218824      0.642138     -2.712947
  C      -2.252425      1.715712     -3.177438
  O      -1.535837      1.658219     -4.147325
  O      -2.355654      2.826163     -2.396652
  H      -1.684744      3.447185     -2.737330
  N      -4.568225      1.143736     -3.042640
  H      -5.239763      0.462584     -2.704922
  H      -4.741039      1.999060     -2.524148
43
Coordinates from ORCA-job 3_Cu4_Cys3 E -8719.696134797927
  Cu     -1.250280     -2.330107     -0.938418
  S       1.785375     -1.855007      1.960489
  S      -1.357679     -1.445691     -2.983179
  Cu     -0.155563     -2.555996      1.086290
  Cu     -0.400452     -0.098187     -1.543628
  Cu      1.031045     -0.271669      0.686979
  S       0.541665      1.501521     -0.447031
  C       2.297895     -1.075698      3.543548
  H       1.435444     -0.759790      4.131672
  H       2.840724     -1.842821      4.105028
  H       3.888602     -0.096506      2.487471
  C       3.214777      0.115439      3.324810
  C       2.411418      1.359885      2.991964
  O       1.326669      1.639954      3.444402
  O       3.117517      2.199122      2.193039
  H       2.514936      2.940688      1.992771
  N       3.931169      0.426381      4.575601
  H       4.483465     -0.387498      4.832147
  H       4.591920      1.180817      4.403940
  C       1.971984      1.948427     -1.499416
  H       2.747688      2.407780     -0.881744
  H       2.384518      1.062120     -1.986339
  H       0.631274      2.485899     -3.079275
  C       1.488549      2.924317     -2.556844
  C       1.030414      4.196786     -1.867555
  O       1.591212      4.771824     -0.968230
  O      -0.114072      4.693038     -2.437802
  H      -0.313384      5.512970     -1.950518
  N       2.592885      3.290050     -3.457020
  H       3.017810      2.426993     -3.790018
  H       2.212345      3.753165     -4.279876
  C      -2.933075     -0.652072     -3.479496
  H      -2.896004     -0.458811     -4.555581
  H      -3.746770     -1.356830     -3.280960
  H      -3.062830      0.479450     -1.666226
  C      -3.238050      0.638293     -2.740347
  C      -2.346575      1.783509     -3.184316
  O      -1.658060      1.825745     -4.178634
  O      -2.447898      2.816642     -2.316586
  H      -1.790063      3.484680     -2.601933
  N      -4.618603      1.067304     -3.037148
  H      -5.253417      0.347601     -2.696760
  H      -4.820539      1.908063     -2.499637
43
Coordinates from ORCA-job 3_Cu4_Cys3 E -8719.697184179229
  Cu     -1.226255     -2.342060     -0.954010
  S       1.847958     -1.907799      1.922677
  S      -1.351534     -1.458827     -2.998705
  Cu     -0.108976     -2.578640      1.056776
  Cu     -0.355998     -0.128311     -1.568408
  Cu      1.095640     -0.322962      0.646700
  S       0.608757      1.456363     -0.475110
  C       2.291602     -1.087974      3.502558
  H       1.401429     -0.815604      4.070432
  H       2.871969     -1.809164      4.086662
  H       3.813456     -0.025031      2.432540
  C       3.126839      0.155614      3.267311
  C       2.240432      1.334537      2.906717
  O       1.132671      1.545234      3.336550
  O       2.883330      2.188364      2.071005
  H       2.229074      2.874938      1.843522
  N       3.816012      0.538666      4.514792
  H       4.424433     -0.228505      4.786473
  H       4.420630      1.335898      4.331500
  C       2.026430      1.907449     -1.537165
  H       2.809394      2.358099     -0.923511
  H       2.428414      1.028471     -2.042986
  H       0.658189      2.479742     -3.076524
  C       1.530086      2.904684     -2.566770
  C       1.095488      4.164249     -1.840300
  O       1.677483      4.713853     -0.939952
  O      -0.053445      4.685088     -2.376315
  H      -0.232544      5.489579     -1.855326
  N       2.615372      3.285203     -3.482927
  H       3.028892      2.429237     -3.844351
  H       2.221056      3.769093     -4.286175
  C      -2.924728     -0.631767     -3.435393
  H      -2.908547     -0.405878     -4.504450
  H      -3.742582     -1.331248     -3.240083
  H      -3.001703      0.449695     -1.592107
  C      -3.192223      0.642201     -2.657124
  C      -2.283245      1.779540     -3.085739
  O      -1.605022      1.828448     -4.087413
  O      -2.384817      2.808177     -2.210826
  H      -1.725218      3.478690     -2.485382
  N      -4.568018      1.109620     -2.916314
  H      -5.211257      0.395376     -2.583601
  H      -4.740938      1.939440     -2.353609
43
Coordinates from ORCA-job 3_Cu4_Cys3 E -8719.697435121398
  Cu     -1.224983     -2.351734     -0.951822
  S       1.902585     -1.970474      1.895358
  S      -1.352830     -1.479259     -3.004874
  Cu     -0.091113     -2.581322      1.051045
  Cu     -0.324195     -0.161512     -1.582767
  Cu      1.147038     -0.381501      0.612592
  S       0.661305      1.409488     -0.488544
  C       2.232618     -1.065213      3.454864
  H       1.302196     -0.774787      3.943637
  H       2.776504     -1.743951      4.119076
  H       3.818159     -0.039201      2.439757
  C       3.070203      0.176108      3.211349
  C       2.204477      1.322001      2.716731
  O       1.059340      1.534659      3.031239
  O       2.918775      2.155748      1.919463
  H       2.281088      2.817701      1.593713
  N       3.659506      0.638924      4.483025
  H       4.258355     -0.100320      4.839349
  H       4.262506      1.437447      4.301018
  C       2.064859      1.876723     -1.555027
  H       2.853636      2.314852     -0.940857
  H       2.458235      1.009319     -2.085422
  H       0.684587      2.486253     -3.066193
  C       1.556776      2.901814     -2.550201
  C       1.117931      4.131920     -1.778345
  O       1.705981      4.661573     -0.871263
  O      -0.045149      4.655834     -2.279201
  H      -0.217679      5.440536     -1.727347
  N       2.631346      3.323501     -3.458838
  H       3.051549      2.485714     -3.850750
  H       2.228310      3.829782     -4.242693
  C      -2.916586     -0.620369     -3.407180
  H      -2.905566     -0.360471     -4.467212
  H      -3.739916     -1.316416     -3.229476
  H      -2.955736      0.415912     -1.539597
  C      -3.165828      0.634216     -2.595258
  C      -2.260893      1.775003     -3.017624
  O      -1.590063      1.833783     -4.022128
  O      -2.339169      2.785406     -2.120139
  H      -1.675411      3.451933     -2.388622
  N      -4.543645      1.113406     -2.816445
  H      -5.181659      0.396283     -2.483781
  H      -4.699460      1.932474     -2.234973
43
Coordinates from ORCA-job 3_Cu4_Cys3 E -8719.697886215788
  Cu     -1.280448     -2.334638     -0.950462
  S       1.860683     -1.951013      1.893627
  S      -1.389239     -1.522350     -3.031366
  Cu     -0.153153     -2.534196      1.063910
  Cu     -0.328599     -0.199326     -1.634933
  Cu      1.125051     -0.400430      0.555433
  S       0.669689      1.375167     -0.571016
  C       2.241113     -1.060132      3.450235
  H       1.326241     -0.816997      3.991511
  H       2.844202     -1.726433      4.074274
  H       3.739432      0.039391      2.377563
  C       3.029172      0.212058      3.194175
  C       2.111439      1.348451      2.777404
  O       0.970971      1.511320      3.136674
  O       2.780902      2.245573      2.011007
  H       2.116929      2.901698      1.728774
  N       3.675184      0.661751      4.442199
  H       4.319502     -0.064319      4.741499
  H       4.238562      1.485681      4.247367
  C       2.076710      1.833854     -1.635294
  H       2.883284      2.228862     -1.015987
  H       2.437181      0.973431     -2.198818
  H       0.717506      2.512338     -3.138142
  C       1.584630      2.901045     -2.594753
  C       1.143825      4.096407     -1.772168
  O       1.744441      4.601932     -0.860703
  O      -0.046580      4.614311     -2.213097
  H      -0.207040      5.373176     -1.625338
  N       2.668235      3.359363     -3.471391
  H       3.091985      2.540464     -3.895601
  H       2.274340      3.897172     -4.238015
  C      -2.933351     -0.621308     -3.412925
  H      -2.919268     -0.334594     -4.464575
  H      -3.771263     -1.301969     -3.251532
  H      -2.937111      0.371712     -1.522759
  C      -3.147661      0.617414     -2.571587
  C      -2.206148      1.731612     -2.976698
  O      -1.536268      1.783979     -3.980054
  O      -2.259272      2.733617     -2.074149
  H      -1.567870      3.373982     -2.326967
  N      -4.509910      1.143496     -2.774621
  H      -5.167114      0.443067     -2.447744
  H      -4.632929      1.957162     -2.179316
43
Coordinates from ORCA-job 3_Cu4_Cys3 E -8719.698384340463
  Cu     -1.298950     -2.335684     -0.880463
  S       1.914285     -1.956739      1.917526
  S      -1.429814     -1.530531     -2.962614
  Cu     -0.117957     -2.516598      1.106413
  Cu     -0.323385     -0.200926     -1.619810
  Cu      1.187216     -0.409551      0.567873
  S       0.711700      1.353879     -0.567227
  C       2.262331     -1.063243      3.480130
  H       1.335134     -0.808108      3.994030
  H       2.840806     -1.733343      4.123365
  H       3.789595      0.017409      2.432309
  C       3.070719      0.198644      3.239478
  C       2.172168      1.347249      2.813627
  O       1.030698      1.525064      3.164190
  O       2.852597      2.222488      2.032667
  H       2.199043      2.883075      1.737180
  N       3.705542      0.638022      4.496531
  H       4.340810     -0.094233      4.800971
  H       4.278144      1.457807      4.310907
  C       2.097219      1.838633     -1.653758
  H       2.913663      2.228983     -1.043404
  H       2.453130      0.986375     -2.234412
  H       0.703105      2.526786     -3.122509
  C       1.581613      2.913357     -2.594487
  C       1.153343      4.105583     -1.758620
  O       1.751407      4.586984     -0.830888
  O      -0.032186      4.638859     -2.195640
  H      -0.190570      5.395532     -1.603421
  N       2.646193      3.377085     -3.494128
  H       3.058995      2.560533     -3.936525
  H       2.232673      3.921349     -4.246913
  C      -2.954669     -0.630993     -3.429829
  H      -2.891838     -0.364934     -4.486773
  H      -3.802417     -1.307524     -3.293767
  H      -3.029806      0.398877     -1.555315
  C      -3.204863      0.622208     -2.616638
  C      -2.256547      1.737957     -3.007105
  O      -1.564520      1.787924     -3.996985
  O      -2.346997      2.752688     -2.121345
  H      -1.655408      3.398085     -2.365649
  N      -4.562958      1.135382     -2.878824
  H      -5.229546      0.437283     -2.561482
  H      -4.711713      1.960089     -2.303028
43
Coordinates from ORCA-job 3_Cu4_Cys3 E -8719.698804672220
  Cu     -1.282850     -2.348319     -0.903603
  S       1.955961     -1.964997      1.893904
  S      -1.425777     -1.537832     -2.984519
  Cu     -0.072337     -2.529978      1.065305
  Cu     -0.311755     -0.210487     -1.649247
  Cu      1.217129     -0.431535      0.533907
  S       0.719981      1.336586     -0.583472
  C       2.233808     -1.057109      3.461865
  H       1.284155     -0.802229      3.933050
  H       2.788119     -1.718400      4.135167
  H       3.797024      0.018024      2.465646
  C       3.045151      0.206421      3.240534
  C       2.160197      1.344929      2.761566
  O       1.003274      1.520013      3.060019
  O       2.870900      2.215494      2.002126
  H       2.230334      2.870162      1.666439
  N       3.626636      0.664949      4.516464
  H       4.257382     -0.057309      4.853350
  H       4.198310      1.488376      4.343309
  C       2.100939      1.829176     -1.674941
  H       2.920581      2.214813     -1.064941
  H       2.452860      0.979702     -2.262777
  H       0.705346      2.536707     -3.132348
  C       1.586822      2.915143     -2.602712
  C       1.165333      4.100101     -1.752521
  O       1.770086      4.570282     -0.821902
  O      -0.013827      4.650244     -2.186793
  H      -0.170474      5.401090     -1.584318
  N       2.651211      3.381059     -3.502875
  H       3.058555      2.565507     -3.954205
  H       2.237060      3.933437     -4.250223
  C      -2.954044     -0.625231     -3.417390
  H      -2.906840     -0.347743     -4.473056
  H      -3.801539     -1.302196     -3.275767
  H      -2.985256      0.385656     -1.528928
  C      -3.188658      0.618564     -2.583349
  C      -2.256398      1.745296     -2.986352
  O      -1.589234      1.808351     -3.994555
  O      -2.312416      2.741925     -2.076375
  H      -1.628388      3.394314     -2.329554
  N      -4.555492      1.127447     -2.805586
  H      -5.211158      0.423672     -2.475239
  H      -4.692728      1.947709     -2.219466
43
Coordinates from ORCA-job 3_Cu4_Cys3 E -8719.699125855937
  Cu     -1.289751     -2.360782     -0.898715
  S       2.027061     -1.991638      1.871732
  S      -1.449204     -1.560912     -2.987717
  Cu     -0.014664     -2.537079      1.035688
  Cu     -0.287154     -0.250596     -1.689801
  Cu      1.280479     -0.501141      0.470107
  S       0.787956      1.270416     -0.635740
  C       2.191029     -1.035397      3.425879
  H       1.209870     -0.794560      3.835534
  H       2.723743     -1.662989      4.147301
  H       3.779879      0.047630      2.483183
  C       2.983570      0.242032      3.210829
  C       2.100503      1.342420      2.646474
  O       0.925603      1.498442      2.877265
  O       2.834585      2.210729      1.906602
  H       2.202941      2.840226      1.510069
  N       3.485144      0.753282      4.500351
  H       4.122745      0.062913      4.887614
  H       4.037578      1.590703      4.330906
  C       2.148316      1.789902     -1.739746
  H       2.985148      2.147529     -1.135704
  H       2.477903      0.959689     -2.365502
  H       0.734583      2.560682     -3.144622
  C       1.622749      2.914999     -2.610556
  C       1.214314      4.057966     -1.701291
  O       1.836258      4.488009     -0.762539
  O       0.027776      4.623023     -2.090152
  H      -0.124997      5.341847     -1.449412
  N       2.677324      3.417531     -3.502357
  H       3.078665      2.620629     -3.989847
  H       2.255852      3.999442     -4.222371
  C      -2.961437     -0.612203     -3.391907
  H      -2.912654     -0.304774     -4.438089
  H      -3.815803     -1.282852     -3.268898
  H      -2.954166      0.350846     -1.479206
  C      -3.174349      0.610446     -2.522843
  C      -2.241432      1.740680     -2.915580
  O      -1.589832      1.821086     -3.932714
  O      -2.271615      2.714704     -1.981870
  H      -1.592686      3.372173     -2.232389
  N      -4.540039      1.133709     -2.709584
  H      -5.193455      0.429042     -2.378275
  H      -4.660353      1.943980     -2.106470
43
Coordinates from ORCA-job 3_Cu4_Cys3 E -8719.699384793832
  Cu     -1.317059     -2.342104     -0.892992
  S       2.012950     -1.973906      1.883970
  S      -1.467112     -1.581735     -2.994433
  Cu     -0.017219     -2.507762      1.024661
  Cu     -0.275202     -0.268566     -1.732902
  Cu      1.305696     -0.520702      0.424623
  S       0.802641      1.244955     -0.680952
  C       2.152869     -1.003025      3.432226
  H       1.167386     -0.729915      3.810012
  H       2.644894     -1.640578      4.173270
  H       3.798990      0.025518      2.529293
  C       2.988381      0.249958      3.232121
  C       2.152959      1.371459      2.637514
  O       0.979307      1.565839      2.843015
  O       2.926705      2.203009      1.895956
  H       2.323396      2.846902      1.478732
  N       3.468426      0.753691      4.532510
  H       4.078319      0.049286      4.938526
  H       4.046418      1.575859      4.374131
  C       2.152688      1.774916     -1.789364
  H       2.997481      2.117755     -1.188090
  H       2.470873      0.954516     -2.433406
  H       0.737468      2.579474     -3.174326
  C       1.621893      2.922366     -2.626355
  C       1.202778      4.029868     -1.678287
  O       1.825143      4.435637     -0.729040
  O       0.009276      4.593213     -2.043327
  H      -0.154165      5.284251     -1.374989
  N       2.678213      3.459187     -3.496528
  H       3.089273      2.678862     -4.001657
  H       2.256886      4.057051     -4.203196
  C      -2.971082     -0.620212     -3.398869
  H      -2.915921     -0.307326     -4.442877
  H      -3.829716     -1.286558     -3.283536
  H      -2.960445      0.330354     -1.480104
  C      -3.180171      0.597512     -2.521821
  C      -2.244646      1.729062     -2.905845
  O      -1.596791      1.816971     -3.924386
  O      -2.276357      2.697904     -1.965870
  H      -1.599971      3.359462     -2.210943
  N      -4.544838      1.125181     -2.705671
  H      -5.199364      0.421117     -2.375930
  H      -4.663268      1.933037     -2.099225
43
Coordinates from ORCA-job 3_Cu4_Cys3 E -8719.699620924748
  Cu     -1.346738     -2.348839     -0.852002
  S       2.022113     -1.994181      1.899212
  S      -1.495899     -1.630481     -2.971439
  Cu     -0.007274     -2.500252      1.037682
  Cu     -0.259857     -0.317830     -1.759066
  Cu      1.356015     -0.570079      0.388220
  S       0.840871      1.187583     -0.726033
  C       2.124937     -0.974859      3.419581
  H       1.131941     -0.696452      3.773260
  H       2.605836     -1.591116      4.185244
  H       3.771645      0.048429      2.507543
  C       2.956499      0.279642      3.202522
  C       2.112799      1.386098      2.590896
  O       0.945568      1.590223      2.822471
  O       2.867581      2.191031      1.802739
  H       2.254578      2.825016      1.382909
  N       3.427699      0.802624      4.498173
  H       4.042308      0.108187      4.914001
  H       3.998913      1.628173      4.333186
  C       2.169477      1.743394     -1.845891
  H       3.035250      2.045672     -1.252445
  H       2.458998      0.950095     -2.536144
  H       0.725768      2.628275     -3.150582
  C       1.628846      2.935756     -2.611678
  C       1.243841      3.997794     -1.599480
  O       1.889191      4.348192     -0.642604
  O       0.048830      4.585711     -1.914178
  H      -0.102024      5.244526     -1.212514
  N       2.667635      3.505530     -3.481967
  H       3.062939      2.744891     -4.028071
  H       2.234646      4.136732     -4.151554
  C      -2.979143     -0.637537     -3.380351
  H      -2.916879     -0.332176     -4.427021
  H      -3.853288     -1.283597     -3.261388
  H      -2.945260      0.324508     -1.466073
  C      -3.162831      0.590937     -2.509151
  C      -2.211702      1.709591     -2.897751
  O      -1.565458      1.789444     -3.918673
  O      -2.227738      2.680714     -1.958072
  H      -1.542084      3.332181     -2.206932
  N      -4.520190      1.139105     -2.692875
  H      -5.185065      0.447147     -2.357392
  H      -4.625309      1.951979     -2.090672
43
Coordinates from ORCA-job 3_Cu4_Cys3 E -8719.699865673798
  Cu     -1.406690     -2.348128     -0.843345
  S       1.969191     -1.990843      1.934157
  S      -1.539300     -1.675905     -2.990903
  Cu     -0.072745     -2.464064      1.067413
  Cu     -0.251438     -0.394838     -1.802766
  Cu      1.346756     -0.649657      0.330057
  S       0.889976      1.112532     -0.805083
  C       2.051295     -0.885586      3.396065
  H       1.057917     -0.559524      3.705120
  H       2.488339     -1.477502      4.205824
  H       3.751404      0.052426      2.483807
  C       2.927963      0.334300      3.149398
  C       2.135055      1.449293      2.487671
  O       0.973372      1.701354      2.699307
  O       2.926831      2.200003      1.684212
  H       2.344282      2.849530      1.243183
  N       3.388636      0.882431      4.438222
  H       3.972920      0.182632      4.887261
  H       3.987844      1.685567      4.261873
  C       2.208397      1.698991     -1.919685
  H       3.096557      1.940678     -1.331302
  H       2.459662      0.945715     -2.667158
  H       0.768244      2.691128     -3.150033
  C       1.676268      2.949125     -2.594230
  C       1.302969      3.928895     -1.497846
  O       1.976656      4.226816     -0.542048
  O       0.085255      4.503102     -1.728158
  H      -0.065964      5.098063     -0.972422
  N       2.717269      3.573594     -3.422725
  H       3.115789      2.847604     -4.012027
  H       2.289075      4.246851     -4.052910
  C      -2.989214     -0.641508     -3.412608
  H      -2.884750     -0.290061     -4.441372
  H      -3.875732     -1.278671     -3.353727
  H      -2.995575      0.233330     -1.459297
  C      -3.184806      0.549356     -2.494122
  C      -2.216494      1.675400     -2.810668
  O      -1.547664      1.795364     -3.813519
  O      -2.252070      2.607864     -1.833835
  H      -1.554547      3.261916     -2.039400
  N      -4.534245      1.115608     -2.684036
  H      -5.210793      0.415277     -2.391850
  H      -4.647911      1.903324     -2.050857
43
Coordinates from ORCA-job 3_Cu4_Cys3 E -8719.700266515010
  Cu     -1.419089     -2.340199     -0.856301
  S       1.884265     -1.990776      1.973971
  S      -1.542516     -1.698358     -3.008420
  Cu     -0.140469     -2.427911      1.086383
  Cu     -0.228408     -0.425016     -1.826814
  Cu      1.343513     -0.654870      0.327497
  S       0.894975      1.090046     -0.831059
  C       1.984775     -0.835525      3.395063
  H       1.000895     -0.454277      3.669290
  H       2.377778     -1.414200      4.236267
  H       3.745319     -0.005842      2.489524
  C       2.919318      0.335148      3.123490
  C       2.196236      1.462129      2.403370
  O       1.043981      1.777622      2.578019
  O       3.043545      2.147856      1.600024
  H       2.508661      2.820038      1.132944
  N       3.373705      0.909763      4.403652
  H       3.912741      0.200810      4.893025
  H       4.013425      1.678140      4.215379
  C       2.217147      1.701054     -1.928115
  H       3.102278      1.936091     -1.332744
  H       2.473934      0.962691     -2.688600
  H       0.784701      2.709633     -3.154419
  C       1.682793      2.962945     -2.580499
  C       1.284758      3.909338     -1.461122
  O       1.954015      4.201367     -0.500548
  O       0.050264      4.454248     -1.666274
  H      -0.111609      5.019556     -0.888868
  N       2.726390      3.619667     -3.379891
  H       3.147539      2.912653     -3.976523
  H       2.297842      4.297951     -4.004243
  C      -2.982101     -0.645190     -3.423943
  H      -2.870155     -0.276064     -4.445471
  H      -3.873263     -1.277188     -3.381122
  H      -2.993034      0.192947     -1.455784
  C      -3.180096      0.528117     -2.484928
  C      -2.213678      1.659312     -2.780690
  O      -1.543873      1.795595     -3.780633
  O      -2.253991      2.575103     -1.788132
  H      -1.553327      3.230066     -1.977745
  N      -4.530364      1.096463     -2.665503
  H      -5.206414      0.389936     -2.387795
  H      -4.644420      1.870915     -2.016077
43
Coordinates from ORCA-job 3_Cu4_Cys3 E -8719.700593772761
  Cu     -1.438635     -2.357340     -0.884197
  S       1.793276     -1.961332      2.000554
  S      -1.562027     -1.750346     -3.044196
  Cu     -0.204851     -2.403735      1.083714
  Cu     -0.219451     -0.479631     -1.882179
  Cu      1.330202     -0.671108      0.292501
  S       0.889384      1.048626     -0.897900
  C       1.909641     -0.764554      3.384734
  H       0.934678     -0.342354      3.629136
  H       2.270238     -1.326586      4.251328
  H       3.707109     -0.020163      2.475401
  C       2.886286      0.365139      3.090480
  C       2.215077      1.500820      2.333251
  O       1.073664      1.863843      2.485743
  O       3.100169      2.138296      1.532235
  H       2.606804      2.836437      1.055542
  N       3.347613      0.957149      4.361118
  H       3.856113      0.242517      4.874371
  H       4.015451      1.698072      4.161093
  C       2.212011      1.677743     -1.983982
  H       3.112106      1.860556     -1.392623
  H       2.437984      0.974867     -2.786963
  H       0.784974      2.774495     -3.135699
  C       1.694467      2.982853     -2.561570
  C       1.322939      3.871827     -1.387137
  O       2.017850      4.122769     -0.432481
  O       0.080730      4.415934     -1.529140
  H      -0.066513      4.931151     -0.714559
  N       2.738697      3.664190     -3.338072
  H       3.151416      2.981810     -3.968108
  H       2.313135      4.373358     -3.929023
  C      -2.981048     -0.660304     -3.438569
  H      -2.864552     -0.272856     -4.452576
  H      -3.883789     -1.276577     -3.406551
  H      -2.964285      0.135855     -1.452234
  C      -3.161495      0.494509     -2.471332
  C      -2.196896      1.631588     -2.750013
  O      -1.538326      1.794803     -3.753230
  O      -2.217198      2.514789     -1.727520
  H      -1.512188      3.168921     -1.903204
  N      -4.511556      1.072191     -2.623516
  H      -5.187214      0.362018     -2.354566
  H      -4.614005      1.831541     -1.954423
43
Coordinates from ORCA-job 3_Cu4_Cys3 E -8719.700387113782
  Cu     -1.408811     -2.401535     -0.934021
  S       1.768359     -1.935867      1.985196
  S      -1.554152     -1.753450     -3.079200
  Cu     -0.211324     -2.443868      1.052568
  Cu     -0.219692     -0.476171     -1.909527
  Cu      1.301070     -0.638045      0.293696
  S       0.858127      1.073602     -0.906922
  C       1.899736     -0.778875      3.399555
  H       0.925973     -0.359890      3.654658
  H       2.263968     -1.356212      4.254688
  H       3.689182     -0.027008      2.483364
  C       2.879369      0.348671      3.118893
  C       2.210453      1.505129      2.391094
  O       1.072392      1.875219      2.557979
  O       3.098312      2.150337      1.600584
  H       2.619223      2.875111      1.146396
  N       3.362058      0.913770      4.394828
  H       3.873119      0.186231      4.887436
  H       4.032093      1.653861      4.198805
  C       2.200548      1.697952     -1.974875
  H       3.088669      1.890852     -1.368661
  H       2.444326      0.986907     -2.765346
  H       0.778413      2.775771     -3.147838
  C       1.692520      2.993760     -2.584520
  C       1.331995      3.924744     -1.440724
  O       2.033302      4.210023     -0.499006
  O       0.096275      4.476304     -1.599577
  H      -0.044394      5.017866     -0.800865
  N       2.738100      3.641195     -3.385528
  H       3.146794      2.939009     -3.995661
  H       2.314498      4.333517     -3.997442
  C      -2.981126     -0.662534     -3.444534
  H      -2.882000     -0.271475     -4.458318
  H      -3.882084     -1.280502     -3.400345
  H      -2.920246      0.128128     -1.453772
  C      -3.150801      0.486084     -2.465124
  C      -2.212627      1.640553     -2.761770
  O      -1.596125      1.833358     -3.784861
  O      -2.191834      2.495896     -1.716777
  H      -1.498884      3.158793     -1.904804
  N      -4.510914      1.047564     -2.580398
  H      -5.170615      0.326676     -2.301109
  H      -4.605260      1.800331     -1.902573
43
Coordinates from ORCA-job 3_Cu4_Cys3 E -8719.700807362606
  Cu     -1.434436     -2.374245     -0.908178
  S       1.768521     -1.946747      1.992335
  S      -1.572084     -1.772477     -3.063070
  Cu     -0.222408     -2.398270      1.066559
  Cu     -0.198618     -0.502114     -1.934818
  Cu      1.336015     -0.663116      0.277324
  S       0.890044      1.033655     -0.934638
  C       1.876443     -0.746419      3.373479
  H       0.897249     -0.325430      3.603409
  H       2.230959     -1.296760      4.250084
  H       3.662170     -0.003192      2.443565
  C       2.852120      0.380543      3.073980
  C       2.177317      1.522776      2.329321
  O       1.036111      1.887110      2.488470
  O       3.060082      2.154069      1.522285
  H       2.576325      2.860351      1.044495
  N       3.335141      0.968753      4.338960
  H       3.856222      0.253593      4.839192
  H       3.997556      1.711465      4.127292
  C       2.223679      1.668347     -2.006257
  H       3.122442      1.836164     -1.408241
  H       2.446759      0.975251     -2.818524
  H       0.811180      2.801253     -3.140091
  C       1.725243      2.990322     -2.565890
  C       1.366695      3.871549     -1.381880
  O       2.075908      4.121089     -0.435028
  O       0.127870      4.422888     -1.505470
  H      -0.007965      4.927584     -0.681561
  N       2.779452      3.661801     -3.334928
  H       3.189871      2.980498     -3.967336
  H       2.364057      4.378754     -3.923884
  C      -2.976468     -0.657468     -3.442511
  H      -2.846479     -0.246469     -4.445144
  H      -3.883467     -1.268355     -3.435883
  H      -2.947581      0.099142     -1.436592
  C      -3.161309      0.473494     -2.445875
  C      -2.214579      1.629123     -2.711234
  O      -1.585723      1.834566     -3.724727
  O      -2.213801      2.475479     -1.658741
  H      -1.518918      3.141357     -1.827871
  N      -4.518414      1.040276     -2.574660
  H      -5.183953      0.317450     -2.313799
  H      -4.621244      1.784142     -1.888281
43
Coordinates from ORCA-job 3_Cu4_Cys3 E -8719.700815567221
  Cu     -1.488010     -2.354784     -0.870323
  S       1.743110     -1.938575      2.020692
  S      -1.591015     -1.795475     -3.047112
  Cu     -0.261382     -2.363685      1.101751
  Cu     -0.204865     -0.539096     -1.927705
  Cu      1.323044     -0.691308      0.278152
  S       0.881250      1.011867     -0.940048
  C       1.862540     -0.708499      3.375084
  H       0.893742     -0.253439      3.582921
  H       2.187499     -1.251707      4.267382
  H       3.683800     -0.042407      2.455373
  C       2.879586      0.380908      3.067420
  C       2.250692      1.529082      2.293024
  O       1.123844      1.939324      2.440294
  O       3.160559      2.113518      1.480213
  H       2.705640      2.827382      0.987117
  N       3.366414      0.975537      4.327347
  H       3.860814      0.253684      4.844590
  H       4.053501      1.693966      4.110162
  C       2.209841      1.674258     -1.998908
  H       3.105175      1.845258     -1.396980
  H       2.443130      0.994637     -2.819144
  H       0.792270      2.814444     -3.121860
  C       1.700597      3.000579     -2.538283
  C       1.326961      3.850777     -1.336964
  O       2.031356      4.086316     -0.382690
  O       0.081403      4.387123     -1.451134
  H      -0.062493      4.875076     -0.619200
  N       2.755087      3.695798     -3.284805
  H       3.179359      3.027509     -3.921660
  H       2.340592      4.419016     -3.866325
  C      -2.980570     -0.672461     -3.451622
  H      -2.831123     -0.264436     -4.452927
  H      -3.890921     -1.277974     -3.459889
  H      -2.975879      0.101184     -1.452265
  C      -3.169099      0.468717     -2.468369
  C      -2.203541      1.608974     -2.732931
  O      -1.552266      1.788426     -3.738371
  O      -2.212248      2.474385     -1.696020
  H      -1.506391      3.128507     -1.865571
  N      -4.517259      1.049459     -2.623529
  H      -5.194070      0.337145     -2.363077
  H      -4.622688      1.802772     -1.948172
43
Coordinates from ORCA-job 3_Cu4_Cys3 E -8719.700969090594
  Cu     -1.466436     -2.358222     -0.888641
  S       1.757202     -1.944111      1.999893
  S      -1.586833     -1.789468     -3.054072
  Cu     -0.242224     -2.377966      1.079347
  Cu     -0.190106     -0.527602     -1.950013
  Cu      1.337231     -0.675665      0.274120
  S       0.882727      1.017347     -0.942644
  C       1.867361     -0.731325      3.370555
  H       0.892790     -0.292808      3.586722
  H       2.202113     -1.280724      4.255408
  H       3.674105     -0.024418      2.452051
  C       2.866580      0.377077      3.074369
  C       2.217622      1.527384      2.319849
  O       1.080477      1.908694      2.463892
  O       3.121344      2.149369      1.528440
  H       2.655503      2.867071      1.051054
  N       3.350394      0.961312      4.340483
  H       3.859057      0.240006      4.844626
  H       4.024969      1.693347      4.129614
  C       2.216055      1.675540     -1.998657
  H       3.108614      1.853782     -1.394345
  H       2.454123      0.988406     -2.811336
  H       0.795416      2.798990     -3.134310
  C       1.707101      2.993938     -2.558453
  C       1.341521      3.869675     -1.373213
  O       2.053683      4.128945     -0.431284
  O       0.092948      4.399642     -1.486300
  H      -0.044529      4.900796     -0.660928
  N       2.759818      3.671550     -3.323313
  H       3.180265      2.990713     -3.949591
  H       2.344551      4.385006     -3.916414
  C      -2.977366     -0.663030     -3.445640
  H      -2.833580     -0.251362     -4.446366
  H      -3.888382     -1.267841     -3.450530
  H      -2.959023      0.099400     -1.441287
  C      -3.162358      0.471493     -2.453836
  C      -2.204813      1.618782     -2.717003
  O      -1.559481      1.809742     -3.723349
  O      -2.215718      2.477636     -1.674609
  H      -1.515913      3.138641     -1.843304
  N      -4.514483      1.046807     -2.595688
  H      -5.186403      0.329681     -2.334973
  H      -4.617938      1.795555     -1.914686
43
Coordinates from ORCA-job 3_Cu4_Cys3 E -8719.701013721942
  Cu     -1.471597     -2.366717     -0.891598
  S       1.759559     -1.945313      1.991682
  S      -1.600025     -1.800675     -3.056251
  Cu     -0.243539     -2.388173      1.072868
  Cu     -0.185057     -0.542236     -1.970976
  Cu      1.337311     -0.678020      0.269294
  S       0.886915      1.004884     -0.960800
  C       1.861595     -0.730471      3.361039
  H       0.882411     -0.302264      3.576635
  H       2.203162     -1.272665      4.247705
  H       3.657473     -0.007992      2.434213
  C       2.848715      0.386918      3.059243
  C       2.187392      1.529072      2.302597
  O       1.045062      1.896671      2.440923
  O       3.086525      2.160108      1.513968
  H       2.614651      2.870538      1.031654
  N       3.331847      0.980714      4.321470
  H       3.851699      0.267105      4.825146
  H       3.996797      1.719775      4.104606
  C       2.225771      1.670460     -2.005041
  H       3.115561      1.841357     -1.394662
  H       2.466716      0.991340     -2.823751
  H       0.813044      2.808391     -3.135892
  C       1.723172      2.995571     -2.555001
  C       1.354466      3.861214     -1.363628
  O       2.060687      4.106170     -0.413454
  O       0.110018      4.398840     -1.479812
  H      -0.032130      4.888623     -0.648415
  N       2.781195      3.676699     -3.308696
  H       3.204658      3.000979     -3.938195
  H       2.371628      4.396563     -3.897777
  C      -2.983230     -0.661937     -3.438297
  H      -2.839759     -0.245964     -4.437242
  H      -3.898539     -1.260182     -3.443586
  H      -2.941065      0.093178     -1.431119
  C      -3.156024      0.468869     -2.439939
  C      -2.200903      1.616904     -2.708800
  O      -1.568227      1.814465     -3.721838
  O      -2.193786      2.465580     -1.658682
  H      -1.494592      3.126045     -1.831079
  N      -4.509008      1.046115     -2.564387
  H      -5.178770      0.328814     -2.298994
  H      -4.603795      1.792430     -1.879492
43
Coordinates from ORCA-job 3_Cu4_Cys3 E -8719.701059824432
  Cu     -1.496418     -2.345032     -0.877739
  S       1.741468     -1.935881      2.000333
  S      -1.605087     -1.806869     -3.049152
  Cu     -0.272374     -2.363305      1.090132
  Cu     -0.186724     -0.545684     -1.974146
  Cu      1.323973     -0.671094      0.277796
  S       0.880325      1.005514     -0.963309
  C       1.863293     -0.719956      3.367351
  H       0.889942     -0.280403      3.586647
  H       2.202905     -1.264501      4.253315
  H       3.661349     -0.021731      2.427686
  C       2.861900      0.384737      3.057315
  C       2.209715      1.532858      2.302095
  O       1.072098      1.913418      2.444158
  O       3.112990      2.153749      1.509953
  H       2.646917      2.868514      1.028477
  N       3.361287      0.975591      4.314493
  H       3.877150      0.257316      4.815697
  H       4.033146      1.706242      4.090340
  C       2.225623      1.672962     -1.997900
  H       3.112697      1.840719     -1.382930
  H       2.469961      0.996884     -2.818106
  H       0.819866      2.815701     -3.133588
  C       1.726558      3.000167     -2.546704
  C       1.351560      3.861752     -1.354558
  O       2.057058      4.110075     -0.404757
  O       0.103569      4.391212     -1.468821
  H      -0.042114      4.877230     -0.636086
  N       2.790008      3.682458     -3.291121
  H       3.218308      3.007942     -3.918450
  H       2.386096      4.404192     -3.881682
  C      -2.983898     -0.669565     -3.448837
  H      -2.828480     -0.253713     -4.445985
  H      -3.897988     -1.269190     -3.465605
  H      -2.963070      0.087536     -1.441981
  C      -3.169687      0.461428     -2.453135
  C      -2.215225      1.612046     -2.713091
  O      -1.568231      1.808050     -3.717537
  O      -2.225125      2.463411     -1.665861
  H      -1.525084      3.125269     -1.829467
  N      -4.522993      1.034323     -2.590878
  H      -5.192995      0.315661     -2.330196
  H      -4.626284      1.781749     -1.908527
43
Coordinates from ORCA-job 3_Cu4_Cys3 E -8719.701077432548
  Cu     -1.508715     -2.334385     -0.877464
  S       1.735609     -1.934454      1.999082
  S      -1.609226     -1.811053     -3.051558
  Cu     -0.287691     -2.353429      1.092612
  Cu     -0.181664     -0.552887     -1.987075
  Cu      1.315283     -0.669104      0.279788
  S       0.866823      1.004965     -0.964549
  C       1.866436     -0.720095      3.367251
  H       0.895764     -0.277167      3.591609
  H       2.207173     -1.268697      4.250261
  H       3.661683     -0.027451      2.419675
  C       2.867780      0.381410      3.054806
  C       2.214911      1.533480      2.306920
  O       1.077412      1.913241      2.451520
  O       3.116280      2.157002      1.514066
  H       2.646987      2.872141      1.036414
  N       3.377406      0.966856      4.310049
  H       3.894489      0.245595      4.805691
  H       4.050483      1.695451      4.082790
  C       2.221553      1.678646     -1.982954
  H       3.100285      1.852764     -1.358016
  H       2.480136      1.001637     -2.798198
  H       0.824739      2.810562     -3.142607
  C       1.722636      3.000897     -2.544072
  C       1.329455      3.864816     -1.359224
  O       2.025756      4.122724     -0.405321
  O       0.078290      4.384392     -1.485590
  H      -0.077796      4.874276     -0.656894
  N       2.793376      3.684160     -3.277215
  H       3.233376      3.007861     -3.894664
  H       2.395878      4.401909     -3.876971
  C      -2.988591     -0.672827     -3.446573
  H      -2.838236     -0.260081     -4.446092
  H      -3.903648     -1.271229     -3.456829
  H      -2.954922      0.090933     -1.442161
  C      -3.165217      0.461988     -2.453914
  C      -2.205302      1.606147     -2.722251
  O      -1.557318      1.790886     -3.728698
  O      -2.214080      2.467608     -1.683689
  H      -1.510888      3.125256     -1.851915
  N      -4.516811      1.039966     -2.586577
  H      -5.188618      0.325624     -2.318172
  H      -4.613290      1.791450     -1.907654
43
Coordinates from ORCA-job 3_Cu4_Cys3 E -8719.701105900924
  Cu     -1.513652     -2.334048     -0.875423
  S       1.733935     -1.931476      1.999074
  S      -1.615075     -1.815884     -3.051285
  Cu     -0.291613     -2.350508      1.094022
  Cu     -0.181427     -0.558124     -1.996476
  Cu      1.316430     -0.668167      0.278615
  S       0.867662      0.998838     -0.974275
  C       1.864136     -0.715041      3.365264
  H       0.893725     -0.270619      3.587640
  H       2.202995     -1.263108      4.249300
  H       3.662992     -0.026920      2.421225
  C       2.867574      0.384519      3.052730
  C       2.218281      1.535315      2.299846
  O       1.081224      1.917508      2.441179
  O       3.123086      2.156979      1.509520
  H       2.656950      2.874824      1.032427
  N       3.373897      0.972725      4.308094
  H       3.888580      0.252238      4.807291
  H       4.048346      1.700176      4.081315
  C       2.224044      1.675773     -1.988112
  H       3.103853      1.842119     -1.362642
  H       2.480136      1.004669     -2.808968
  H       0.828471      2.818144     -3.138461
  C       1.727365      3.003038     -2.539624
  C       1.336309      3.860543     -1.349495
  O       2.032800      4.110820     -0.393738
  O       0.086319      4.382741     -1.473175
  H      -0.070252      4.866896     -0.641343
  N       2.798489      3.689140     -3.269365
  H       3.237699      3.015815     -3.890496
  H       2.401991      4.411078     -3.864621
  C      -2.992812     -0.675978     -3.447138
  H      -2.842063     -0.263807     -4.446740
  H      -3.908323     -1.273564     -3.457199
  H      -2.956368      0.088847     -1.443334
  C      -3.168784      0.459313     -2.454879
  C      -2.210639      1.604535     -2.724903
  O      -1.562272      1.788514     -3.731164
  O      -2.219436      2.466548     -1.686813
  H      -1.516301      3.123925     -1.855399
  N      -4.521308      1.035499     -2.585263
  H      -5.191557      0.320569     -2.314777
  H      -4.617425      1.787378     -1.906796
43
Coordinates from ORCA-job 3_Cu4_Cys3 E -8719.701116642376
  Cu     -1.511413     -2.337218     -0.884056
  S       1.733746     -1.927338      1.995059
  S      -1.616368     -1.813805     -3.061836
  Cu     -0.294683     -2.352955      1.090149
  Cu     -0.183379     -0.557656     -2.006359
  Cu      1.312198     -0.660735      0.279376
  S       0.866728      0.998821     -0.986492
  C       1.865806     -0.716524      3.365819
  H       0.894982     -0.275756      3.593357
  H       2.209735     -1.267558      4.246045
  H       3.664142     -0.022495      2.425428
  C       2.865016      0.386681      3.053689
  C       2.212522      1.532589      2.296320
  O       1.073894      1.911055      2.435534
  O       3.115785      2.155172      1.505222
  H       2.646991      2.869669      1.025469
  N       3.364894      0.980102      4.309313
  H       3.879539      0.262700      4.812882
  H       4.037742      1.709321      4.083624
  C       2.229365      1.675215     -1.992402
  H       3.107434      1.834826     -1.362905
  H       2.485990      1.007320     -2.815739
  H       0.839902      2.825025     -3.141503
  C       1.737956      3.006002     -2.540095
  C       1.346024      3.861469     -1.348498
  O       2.040661      4.107290     -0.390348
  O       0.098002      4.386929     -1.474063
  H      -0.060157      4.868933     -0.641203
  N       2.811385      3.692854     -3.265815
  H       3.250090      3.021326     -3.889100
  H       2.417147      4.418135     -3.858399
  C      -3.000104     -0.677188     -3.446426
  H      -2.857909     -0.263532     -4.446531
  H      -3.913800     -1.277472     -3.450193
  H      -2.952339      0.084195     -1.442043
  C      -3.171885      0.456242     -2.451524
  C      -2.217083      1.602990     -2.726006
  O      -1.572132      1.786028     -3.734532
  O      -2.221754      2.464905     -1.687890
  H      -1.518639      3.121536     -1.858248
  N      -4.526250      1.029983     -2.571410
  H      -5.193047      0.313660     -2.296439
  H      -4.618752      1.781041     -1.891595
43
Coordinates from ORCA-job 3_Cu4_Cys3 E -8719.701121275017
  Cu     -1.505774     -2.339443     -0.909408
  S       1.715581     -1.913985      1.989439
  S      -1.626482     -1.823567     -3.087184
  Cu     -0.305475     -2.337376      1.072726
  Cu     -0.171090     -0.571092     -2.058033
  Cu      1.320966     -0.659084      0.258334
  S       0.872525      0.978446     -1.027183
  C       1.837675     -0.694559      3.353420
  H       0.867428     -0.244485      3.564714
  H       2.165186     -1.243848      4.240982
  H       3.656584     -0.020484      2.437986
  C       2.849606      0.398865      3.049191
  C       2.217477      1.544443      2.274200
  O       1.082568      1.938360      2.403438
  O       3.132659      2.145486      1.481119
  H       2.678648      2.866008      0.994639
  N       3.332236      0.997323      4.309292
  H       3.831811      0.279493      4.827210
  H       4.014356      1.720209      4.091286
  C       2.241018      1.668996     -2.015518
  H       3.116991      1.814908     -1.379808
  H       2.499268      1.015097     -2.849515
  H       0.857272      2.841171     -3.147754
  C       1.753962      3.010626     -2.540696
  C       1.358972      3.845871     -1.335293
  O       2.055302      4.080847     -0.375113
  O       0.109862      4.367190     -1.450775
  H      -0.052161      4.832562     -0.609171
  N       2.829769      3.708848     -3.251704
  H       3.272772      3.046764     -3.881845
  H       2.437348      4.441986     -3.835597
  C      -3.010314     -0.677517     -3.444514
  H      -2.878698     -0.254601     -4.441953
  H      -3.925532     -1.275449     -3.443048
  H      -2.933576      0.060616     -1.432642
  C      -3.168831      0.444266     -2.434152
  C      -2.220407      1.595802     -2.709651
  O      -1.591014      1.790847     -3.725317
  O      -2.210498      2.445954     -1.661920
  H      -1.508930      3.103449     -1.834097
  N      -4.526045      1.016366     -2.526371
  H      -5.186474      0.296079     -2.246482
  H      -4.608558      1.760398     -1.837596
43
Coordinates from ORCA-job 3_Cu4_Cys3 E -8719.701154633471
  Cu     -1.496488     -2.343365     -0.906703
  S       1.735086     -1.921977      1.986195
  S      -1.619279     -1.812798     -3.084506
  Cu     -0.287973     -2.350652      1.072740
  Cu     -0.175149     -0.561148     -2.040697
  Cu      1.323368     -0.657927      0.265371
  S       0.870622      0.988489     -1.011989
  C       1.853063     -0.711457      3.358304
  H       0.880752     -0.269116      3.576263
  H       2.187023     -1.265117      4.240772
  H       3.667497     -0.019531      2.447272
  C       2.856922      0.390987      3.059705
  C       2.215908      1.534656      2.289270
  O       1.078243      1.919349      2.420229
  O       3.126011      2.146365      1.498033
  H       2.664368      2.863365      1.014385
  N       3.333678      0.987053      4.323019
  H       3.836936      0.270156      4.838602
  H       4.011412      1.715292      4.109378
  C       2.237328      1.673985     -2.006013
  H       3.112107      1.829789     -1.371048
  H       2.498655      1.011734     -2.832398
  H       0.849822      2.828739     -3.151665
  C       1.746210      3.007492     -2.546934
  C       1.350329      3.856375     -1.351773
  O       2.042693      4.096511     -0.390316
  O       0.103805      4.383009     -1.478557
  H      -0.057646      4.860423     -0.643728
  N       2.820353      3.699886     -3.266364
  H       3.262463      3.031846     -3.890928
  H       2.425846      4.426696     -3.856787
  C      -3.009724     -0.675002     -3.441455
  H      -2.884227     -0.257012     -4.441850
  H      -3.922441     -1.276706     -3.432682
  H      -2.932513      0.074840     -1.434196
  C      -3.168341      0.452681     -2.437866
  C      -2.220626      1.602995     -2.720918
  O      -1.590628      1.791613     -3.737464
  O      -2.213536      2.461686     -1.679820
  H      -1.513233      3.119238     -1.857435
  N      -4.526077      1.023143     -2.532842
  H      -5.185777      0.303923     -2.248405
  H      -4.608859      1.771275     -1.848556
43
Coordinates from ORCA-job 3_Cu4_Cys3 E -8719.701158043550
  Cu     -1.495399     -2.339654     -0.906901
  S       1.736377     -1.922216      1.985354
  S      -1.618303     -1.813128     -3.086142
  Cu     -0.286979     -2.350547      1.073430
  Cu     -0.175210     -0.560965     -2.040435
  Cu      1.321145     -0.656941      0.266180
  S       0.867618      0.989773     -1.010611
  C       1.855368     -0.713807      3.359148
  H       0.882942     -0.272752      3.579320
  H       2.191479     -1.267750      4.240660
  H       3.668499     -0.019177      2.447589
  C       2.857470      0.390102      3.060287
  C       2.214550      1.532529      2.289434
  O       1.076356      1.915615      2.420384
  O       3.123450      2.144929      1.497299
  H       2.660230      2.859655      1.012073
  N       3.333667      0.986979      4.323369
  H       3.837575      0.270640      4.839129
  H       4.010796      1.715681      4.109408
  C       2.235354      1.675175     -2.003508
  H       3.108760      1.833117     -1.367237
  H       2.498546      1.011595     -2.828250
  H       0.848063      2.827885     -3.151612
  C       1.744526      3.007517     -2.547327
  C       1.349263      3.857917     -1.353158
  O       2.043042      4.100852     -0.393384
  O       0.101590      4.383100     -1.478138
  H      -0.057299      4.862214     -0.643695
  N       2.819001      3.698277     -3.267767
  H       3.260677      3.029262     -3.891695
  H       2.424714      4.424404     -3.859298
  C      -3.009276     -0.675490     -3.440854
  H      -2.885364     -0.257863     -4.441718
  H      -3.921971     -1.277242     -3.430545
  H      -2.931195      0.075831     -1.433840
  C      -3.166612      0.453110     -2.437847
  C      -2.218081      1.602574     -2.721558
  O      -1.585239      1.789001     -3.736830
  O      -2.214483      2.464253     -1.682785
  H      -1.514116      3.121855     -1.860542
  N      -4.523825      1.024810     -2.533520
  H      -5.184205      0.306596     -2.247947
  H      -4.605512      1.774068     -1.850280
43
Coordinates from ORCA-job 3_Cu4_Cys3 E -8719.701175303249
  Cu     -1.486216     -2.336237     -0.912052
  S       1.744656     -1.922565      1.979636
  S      -1.618443     -1.809959     -3.092364
  Cu     -0.276478     -2.352867      1.068810
  Cu     -0.173906     -0.557974     -2.047776
  Cu      1.323950     -0.654103      0.263597
  S       0.867851      0.990926     -1.014301
  C       1.857621     -0.718884      3.357738
  H       0.883657     -0.281224      3.577964
  H       2.193980     -1.274302      4.238294
  H       3.672009     -0.015601      2.454799
  C       2.856806      0.389233      3.064947
  C       2.212224      1.530573      2.293531
  O       1.073718      1.912295      2.425757
  O       3.119095      2.143210      1.499581
  H       2.654547      2.856946      1.014475
  N       3.325243      0.984981      4.331329
  H       3.828050      0.268807      4.848365
  H       4.001787      1.715638      4.122295
  C       2.237764      1.676710     -2.004284
  H       3.107934      1.839028     -1.364739
  H       2.505910      1.010692     -2.825464
  H       0.852851      2.825787     -3.159569
  C       1.747495      3.007097     -2.553125
  C       1.348333      3.858587     -1.361237
  O       2.038592      4.100801     -0.398659
  O       0.101717      4.385549     -1.490823
  H      -0.058213      4.865501     -0.657049
  N       2.824022      3.697213     -3.271045
  H       3.267847      3.027713     -3.892975
  H       2.431105      4.422292     -3.864864
  C      -3.013550     -0.674727     -3.437349
  H      -2.896609     -0.256406     -4.438864
  H      -3.925145     -1.278040     -3.421692
  H      -2.925381      0.077273     -1.430922
  C      -3.166629      0.453957     -2.433792
  C      -2.221390      1.604620     -2.723104
  O      -1.592184      1.791374     -3.740688
  O      -2.216395      2.468235     -1.685691
  H      -1.518162      3.126937     -1.867777
  N      -4.525316      1.023705     -2.522833
  H      -5.182959      0.304995     -2.232120
  H      -4.603803      1.773997     -1.840323
43
Coordinates from ORCA-job 3_Cu4_Cys3 E -8719.701189820047
  Cu     -1.476408     -2.336920     -0.921026
  S       1.748170     -1.920416      1.973471
  S      -1.622961     -1.812206     -3.101620
  Cu     -0.269585     -2.356014      1.062571
  Cu     -0.170680     -0.561467     -2.065678
  Cu      1.324935     -0.653196      0.256973
  S       0.868330      0.985986     -1.026186
  C       1.852824     -0.717651      3.352664
  H       0.877500     -0.280682      3.568341
  H       2.185180     -1.272782      4.234961
  H       3.672689     -0.012067      2.461926
  C       2.852546      0.391672      3.066151
  C       2.211615      1.531714      2.289652
  O       1.073153      1.914969      2.418225
  O       3.120822      2.140806      1.495938
  H       2.658618      2.854407      1.008207
  N       3.310987      0.988286      4.335749
  H       3.809752      0.272398      4.857077
  H       3.989026      1.719016      4.131874
  C       2.241690      1.676388     -2.008048
  H       3.109012      1.837594     -1.364428
  H       2.513954      1.013155     -2.830094
  H       0.858793      2.828792     -3.162832
  C       1.752572      3.008343     -2.554561
  C       1.351313      3.857327     -1.361698
  O       2.039692      4.097378     -0.397190
  O       0.105223      4.385123     -1.492591
  H      -0.055922      4.862533     -0.657653
  N       2.830735      3.699619     -3.268578
  H       3.276205      3.031449     -3.890710
  H       2.439467      4.426035     -3.861824
  C      -3.020163     -0.675780     -3.433265
  H      -2.911468     -0.256163     -4.435172
  H      -3.931872     -1.278647     -3.410967
  H      -2.914983      0.074983     -1.426952
  C      -3.165101      0.452175     -2.427450
  C      -2.223580      1.604108     -2.723233
  O      -1.601020      1.792912     -3.744426
  O      -2.213493      2.467604     -1.685453
  H      -1.517315      3.127069     -1.872347
  N      -4.525091      1.020869     -2.504713
  H      -5.179346      0.301695     -2.207653
  H      -4.597834      1.771367     -1.821793
43
Coordinates from ORCA-job 3_Cu4_Cys3 E -8719.701198645625
  Cu     -1.473303     -2.334475     -0.923280
  S       1.749631     -1.919101      1.969805
  S      -1.629014     -1.815659     -3.104228
  Cu     -0.265893     -2.357477      1.060156
  Cu     -0.168837     -0.565527     -2.079242
  Cu      1.325087     -0.654022      0.251836
  S       0.870138      0.980954     -1.036288
  C       1.848294     -0.715285      3.348293
  H       0.872021     -0.278284      3.559613
  H       2.177109     -1.269177      4.232708
  H       3.670854     -0.009820      2.462956
  C       2.848855      0.394106      3.064513
  C       2.210249      1.533525      2.285279
  O       1.071713      1.917603      2.411119
  O       3.121540      2.141516      1.493183
  H       2.661133      2.855760      1.004445
  N       3.303268      0.991313      4.335263
  H       3.800704      0.275726      4.858300
  H       3.981879      1.722029      4.133168
  C       2.246065      1.675798     -2.011200
  H       3.111425      1.835276     -1.364486
  H       2.521438      1.015866     -2.834819
  H       0.865713      2.832768     -3.164987
  C       1.758211      3.009882     -2.554004
  C       1.353969      3.854715     -1.359139
  O       2.039943      4.091616     -0.392149
  O       0.108575      4.383409     -1.491555
  H      -0.055278      4.856924     -0.654875
  N       2.838133      3.703501     -3.262925
  H       3.285417      3.037488     -3.886001
  H       2.449006      4.432364     -3.854513
  C      -3.026031     -0.677538     -3.430101
  H      -2.920590     -0.257089     -4.432003
  H      -3.938352     -1.279325     -3.405178
  H      -2.910074      0.072871     -1.424054
  C      -3.165704      0.449988     -2.423191
  C      -2.225628      1.601854     -2.723436
  O      -1.607176      1.790563     -3.747134
  O      -2.210945      2.465387     -1.685598
  H      -1.515584      3.124763     -1.875431
  N      -4.526101      1.018616     -2.493064
  H      -5.178628      0.299371     -2.192438
  H      -4.595250      1.769010     -1.809678
43
Coordinates from ORCA-job 3_Cu4_Cys3 E -8719.701205525631
  Cu     -1.466776     -2.333012     -0.926088
  S       1.754415     -1.918315      1.964968
  S      -1.637869     -1.819678     -3.106438
  Cu     -0.256442     -2.362197      1.055475
  Cu     -0.165603     -0.571711     -2.098329
  Cu      1.328659     -0.658535      0.241953
  S       0.876241      0.972159     -1.052109
  C       1.840099     -0.711027      3.341119
  H       0.861709     -0.274058      3.542591
  H       2.161143     -1.262333      4.229960
  H       3.668701     -0.006298      2.467869
  C       2.842286      0.398433      3.062773
  C       2.208771      1.535761      2.276746
  O       1.069133      1.919582      2.393641
  O       3.125554      2.142655      1.490197
  H       2.668587      2.856560      0.997294
  N       3.287038      0.998458      4.335589
  H       3.782347      0.284641      4.863069
  H       3.965801      1.729985      4.136846
  C       2.253939      1.674125     -2.018777
  H       3.118341      1.829080     -1.369664
  H       2.531189      1.020491     -2.846763
  H       0.874306      2.838885     -3.165693
  C       1.766463      3.011941     -2.552949
  C       1.361097      3.850070     -1.353496
  O       2.046792      4.083130     -0.385400
  O       0.115645      4.378382     -1.483711
  H      -0.050213      4.846485     -0.644333
  N       2.846712      3.709942     -3.256952
  H       3.294626      3.047742     -3.883530
  H       2.458830      4.443117     -3.843885
  C      -3.034682     -0.679287     -3.425057
  H      -2.933518     -0.257966     -4.426990
  H      -3.947737     -1.279747     -3.396551
  H      -2.905068      0.069984     -1.419169
  C      -3.167703      0.447340     -2.416405
  C      -2.228942      1.598745     -2.722094
  O      -1.616280      1.786920     -3.749234
  O      -2.207292      2.461838     -1.684015
  H      -1.512151      3.120362     -1.876848
  N      -4.528307      1.016325     -2.476308
  H      -5.178912      0.296898     -2.172036
  H      -4.592945      1.765909     -1.791626
43
Coordinates from ORCA-job 3_Cu4_Cys3 E -8719.701214709898
  Cu     -1.461902     -2.333836     -0.929386
  S       1.755295     -1.918166      1.961601
  S      -1.638684     -1.818956     -3.108085
  Cu     -0.254055     -2.366327      1.053156
  Cu     -0.166216     -0.569453     -2.103134
  Cu      1.324581     -0.657009      0.239772
  S       0.876490      0.974450     -1.055782
  C       1.838188     -0.712613      3.339442
  H       0.859091     -0.276943      3.540331
  H       2.158959     -1.264674      4.227880
  H       3.665988     -0.005743      2.467059
  C       2.839388      0.397969      3.062427
  C       2.205209      1.535353      2.277207
  O       1.064882      1.917561      2.392331
  O       3.122809      2.144863      1.493325
  H       2.665448      2.858820      1.000938
  N       3.283742      0.997447      4.335692
  H       3.780348      0.283903      4.862324
  H       3.961406      1.730082      4.137243
  C       2.257041      1.675783     -2.018453
  H       3.119868      1.830430     -1.367196
  H       2.536405      1.022235     -2.845801
  H       0.880576      2.839964     -3.169335
  C       1.771195      3.013298     -2.554469
  C       1.363047      3.852701     -1.356892
  O       2.046156      4.086327     -0.387203
  O       0.118310      4.381615     -1.491282
  H      -0.049911      4.850718     -0.652972
  N       2.853155      3.710757     -3.256439
  H       3.301831      3.048261     -3.882077
  H       2.467056      4.444363     -3.843919
  C      -3.037764     -0.680192     -3.422235
  H      -2.940627     -0.259058     -4.424540
  H      -3.950011     -1.281653     -3.390274
  H      -2.902100      0.068692     -1.416808
  C      -3.168313      0.446076     -2.413052
  C      -2.230757      1.597767     -2.721509
  O      -1.621025      1.785508     -3.750375
  O      -2.205941      2.460602     -1.683396
  H      -1.511114      3.119044     -1.877383
  N      -4.529210      1.014413     -2.468016
  H      -5.178537      0.294305     -2.162801
  H      -4.592317      1.763099     -1.782275
43
Coordinates from ORCA-job 3_Cu4_Cys3 E -8719.701224241759
  Cu     -1.458328     -2.330879     -0.928315
  S       1.756118     -1.918144      1.958425
  S      -1.638562     -1.818042     -3.105219
  Cu     -0.253539     -2.369211      1.054445
  Cu     -0.168504     -0.563534     -2.105870
  Cu      1.315436     -0.653747      0.239158
  S       0.873441      0.981087     -1.056935
  C       1.839637     -0.716712      3.340049
  H       0.860378     -0.282645      3.543601
  H       2.162515     -1.271362      4.226060
  H       3.664464     -0.007997      2.464500
  C       2.839590      0.394811      3.062889
  C       2.202979      1.532844      2.280845
  O       1.062161      1.913230      2.396167
  O       3.119984      2.145754      1.498029
  H       2.660479      2.859173      1.007040
  N       3.287285      0.992635      4.335784
  H       3.787115      0.279009      4.859258
  H       3.963053      1.726663      4.135983
  C       2.259174      1.680027     -2.013544
  H       3.119049      1.835005     -1.358576
  H       2.542320      1.025374     -2.838801
  H       0.888744      2.841224     -3.173929
  C       1.776217      3.016111     -2.555026
  C       1.362634      3.858838     -1.361852
  O       2.040941      4.094376     -0.389336
  O       0.118965      4.388563     -1.504520
  H      -0.052618      4.861996     -0.669472
  N       2.861644      3.711788     -3.253578
  H       3.311598      3.048062     -3.876960
  H       2.478623      4.445461     -3.842926
  C      -3.041461     -0.683688     -3.418371
  H      -2.949119     -0.266199     -4.422549
  H      -3.951865     -1.287583     -3.380594
  H      -2.902237      0.070511     -1.415599
  C      -3.171119      0.445225     -2.412138
  C      -2.234460      1.596501     -2.725687
  O      -1.627097      1.780828     -3.756498
  O      -2.207253      2.462037     -1.690145
  H      -1.512133      3.119520     -1.886187
  N      -4.532384      1.012050     -2.465223
  H      -5.180537      0.291542     -2.158592
  H      -4.595345      1.761280     -1.780148
43
Coordinates from ORCA-job 3_Cu4_Cys3 E -8719.701240170998
  Cu     -1.458594     -2.325007     -0.924397
  S       1.754063     -1.918534      1.957625
  S      -1.639873     -1.819523     -3.100985
  Cu     -0.257268     -2.369088      1.058967
  Cu     -0.169638     -0.560962     -2.108516
  Cu      1.305569     -0.655348      0.236713
  S       0.871134      0.984105     -1.058190
  C       1.841779     -0.718330      3.340295
  H       0.862954     -0.285328      3.547931
  H       2.168575     -1.273902      4.224274
  H       3.662818     -0.008796      2.458230
  C       2.840088      0.393709      3.059760
  C       2.200158      1.531496      2.280198
  O       1.058513      1.909055      2.395801
  O       3.115956      2.148320      1.498493
  H       2.654414      2.861689      1.009500
  N       3.292337      0.991820      4.330930
  H       3.795737      0.278823      4.851840
  H       3.966051      1.726920      4.128104
  C       2.261223      1.682158     -2.009044
  H       3.118652      1.836387     -1.350759
  H       2.547202      1.027449     -2.833403
  H       0.896285      2.842963     -3.176209
  C       1.780999      3.018145     -2.553438
  C       1.362591      3.861630     -1.362533
  O       2.038037      4.099183     -0.388498
  O       0.118240      4.389049     -1.508936
  H      -0.055285      4.864645     -0.675540
  N       2.869731      3.713125     -3.247635
  H       3.320911      3.049307     -3.870106
  H       2.489465      4.447761     -3.837635
  C      -3.043661     -0.686517     -3.416142
  H      -2.952036     -0.271407     -4.421383
  H      -3.953350     -1.291483     -3.376459
  H      -2.907142      0.070481     -1.414556
  C      -3.174361      0.444193     -2.411969
  C      -2.236149      1.594221     -2.726115
  O      -1.628172      1.776405     -3.756982
  O      -2.209147      2.461325     -1.692104
  H      -1.512415      3.117184     -1.887981
  N      -4.535076      1.011650     -2.467832
  H      -5.184318      0.291564     -2.162446
  H      -4.599013      1.761246     -1.783229
43
Coordinates from ORCA-job 3_Cu4_Cys3 E -8719.701262613433
  Cu     -1.454267     -2.316500     -0.915786
  S       1.759158     -1.921497      1.954503
  S      -1.642469     -1.820359     -3.091682
  Cu     -0.255687     -2.374234      1.066574
  Cu     -0.170052     -0.555077     -2.113651
  Cu      1.292099     -0.660363      0.231698
  S       0.867165      0.988249     -1.058290
  C       1.851243     -0.725935      3.340916
  H       0.871982     -0.298367      3.557205
  H       2.187554     -1.283409      4.220137
  H       3.664627     -0.007416      2.451295
  C       2.842639      0.390902      3.056578
  C       2.193614      1.525620      2.280304
  O       1.049781      1.895467      2.397806
  O       3.104498      2.150033      1.498493
  H       2.637556      2.861611      1.012275
  N       3.297690      0.991138      4.325806
  H       3.807820      0.280809      4.843803
  H       3.966035      1.730226      4.119753
  C       2.264688      1.685368     -1.998834
  H       3.116454      1.840490     -1.333552
  H       2.557655      1.029535     -2.819972
  H       0.908828      2.842212     -3.180225
  C       1.788204      3.019874     -2.550533
  C       1.359471      3.866316     -1.365529
  O       2.026262      4.105388     -0.385923
  O       0.116749      4.394236     -1.524419
  H      -0.062020      4.874609     -0.694922
  N       2.882417      3.713771     -3.237244
  H       3.336678      3.049679     -3.857281
  H       2.506263      4.448875     -3.829454
  C      -3.048755     -0.690586     -3.409488
  H      -2.960597     -0.282020     -4.417770
  H      -3.957012     -1.297392     -3.363042
  H      -2.913260      0.077112     -1.412413
  C      -3.179475      0.446131     -2.411884
  C      -2.240683      1.594202     -2.732123
  O      -1.633884      1.771516     -3.764560
  O      -2.212404      2.466222     -1.702499
  H      -1.514556      3.119752     -1.902354
  N      -4.539845      1.013693     -2.472200
  H      -5.189866      0.295229     -2.164558
  H      -4.604314      1.766672     -1.791323
43
Coordinates from ORCA-job 3_Cu4_Cys3 E -8719.701278963850
  Cu     -1.452395     -2.311091     -0.912677
  S       1.753696     -1.920489      1.954437
  S      -1.643006     -1.822339     -3.090440
  Cu     -0.264662     -2.374459      1.074599
  Cu     -0.172362     -0.550634     -2.118513
  Cu      1.275135     -0.664387      0.226917
  S       0.859815      0.991620     -1.059851
  C       1.855465     -0.726189      3.340905
  H       0.878081     -0.298057      3.564326
  H       2.197783     -1.284949      4.217043
  H       3.665952     -0.008924      2.444309
  C       2.845714      0.389917      3.051616
  C       2.193927      1.524032      2.276863
  O       1.050952      1.894652      2.400009
  O       3.101293      2.147029      1.490159
  H       2.633505      2.860357      1.007224
  N       3.305113      0.991317      4.318814
  H       3.815382      0.280868      4.836486
  H       3.973815      1.729328      4.110210
  C       2.264922      1.687279     -1.990512
  H       3.111472      1.841192     -1.318363
  H       2.563504      1.031082     -2.809328
  H       0.919033      2.845086     -3.182076
  C       1.793744      3.022397     -2.545741
  C       1.356147      3.868877     -1.364076
  O       2.015510      4.107464     -0.379254
  O       0.115319      4.397869     -1.532623
  H      -0.068695      4.879103     -0.704736
  N       2.893705      3.715871     -3.223632
  H       3.351230      3.052367     -3.841979
  H       2.522065      4.452247     -3.817253
  C      -3.051949     -0.695149     -3.406903
  H      -2.967422     -0.289719     -4.416794
  H      -3.958904     -1.303539     -3.355466
  H      -2.916047      0.077608     -1.412145
  C      -3.182006      0.444521     -2.412451
  C      -2.244025      1.592115     -2.736361
  O      -1.638470      1.767592     -3.769890
  O      -2.215050      2.466892     -1.708948
  H      -1.517391      3.119583     -1.912264
  N      -4.542528      1.011851     -2.474793
  H      -5.192604      0.294416     -2.164779
  H      -4.606780      1.767174     -1.796433
43
Coordinates from ORCA-job 3_Cu4_Cys3 E -8719.701294840053
  Cu     -1.455808     -2.304164     -0.902356
  S       1.744977     -1.920280      1.958831
  S      -1.641811     -1.824343     -3.083978
  Cu     -0.280843     -2.372581      1.090997
  Cu     -0.175671     -0.544932     -2.114485
  Cu      1.254731     -0.670677      0.226925
  S       0.848709      0.995389     -1.051642
  C       1.864291     -0.724817      3.342060
  H       0.890595     -0.293574      3.575467
  H       2.214441     -1.283376      4.215302
  H       3.668859     -0.011741      2.429201
  C       2.854213      0.388672      3.043014
  C       2.197997      1.524267      2.274153
  O       1.056963      1.896908      2.409261
  O       3.098541      2.145109      1.478885
  H       2.629186      2.861136      1.001248
  N       3.325977      0.989412      4.306061
  H       3.836101      0.276916      4.821040
  H       3.996798      1.723882      4.091984
  C       2.260991      1.687637     -1.974512
  H       3.102543      1.841577     -1.296119
  H       2.564658      1.029313     -2.789604
  H       0.924464      2.845123     -3.176675
  C       1.795141      3.022581     -2.534860
  C       1.349726      3.871414     -1.357957
  O       2.001433      4.110800     -0.368163
  O       0.111311      4.402168     -1.537298
  H      -0.078425      4.884449     -0.711369
  N       2.900553      3.713995     -3.205792
  H       3.361522      3.049727     -3.820771
  H       2.533655      4.450182     -3.802682
  C      -3.051090     -0.699995     -3.408876
  H      -2.963605     -0.298227     -4.420010
  H      -3.957637     -1.308933     -3.358002
  H      -2.923442      0.081457     -1.416896
  C      -3.185291      0.443861     -2.419852
  C      -2.248331      1.591619     -2.745116
  O      -1.639779      1.765470     -3.777137
  O      -2.223838      2.470281     -1.720403
  H      -1.527442      3.123549     -1.926147
  N      -4.546460      1.009691     -2.491209
  H      -5.197182      0.293707     -2.179162
  H      -4.613734      1.769128     -1.817717
43
Coordinates from ORCA-job 3_Cu4_Cys3 E -8719.701317796613
  Cu     -1.451344     -2.297633     -0.898591
  S       1.741250     -1.919773      1.956004
  S      -1.644748     -1.826526     -3.082294
  Cu     -0.289178     -2.376569      1.100683
  Cu     -0.176102     -0.540581     -2.125729
  Cu      1.235468     -0.676299      0.221829
  S       0.839957      0.995098     -1.053070
  C       1.869080     -0.724359      3.337591
  H       0.897066     -0.292428      3.576772
  H       2.223950     -1.282409      4.209289
  H       3.668744     -0.010577      2.415019
  C       2.857295      0.389185      3.033520
  C       2.196781      1.525499      2.269515
  O       1.056009      1.896585      2.411032
  O       3.092702      2.148479      1.471402
  H       2.621537      2.866563      0.998483
  N       3.336249      0.988875      4.294414
  H       3.846586      0.275031      4.807281
  H       4.008108      1.721520      4.077471
  C       2.262499      1.687729     -1.959757
  H       3.095922      1.842010     -1.271537
  H       2.576033      1.029005     -2.770722
  H       0.938836      2.845019     -3.176472
  C       1.802792      3.022492     -2.525496
  C       1.344396      3.872795     -1.354539
  O       1.984244      4.112399     -0.357112
  O       0.109218      4.405392     -1.549120
  H      -0.089425      4.888571     -0.725768
  N       2.915501      3.713512     -3.184527
  H       3.383109      3.049357     -3.794566
  H       2.555948      4.450380     -3.785000
  C      -3.056278     -0.704743     -3.405591
  H      -2.972494     -0.305637     -4.418127
  H      -3.962256     -1.314042     -3.350222
  H      -2.921405      0.085157     -1.416857
  C      -3.187854      0.442593     -2.420392
  C      -2.254253      1.590354     -2.754322
  O      -1.648014      1.760108     -3.788316
  O      -2.229083      2.474816     -1.734108
  H      -1.534548      3.127973     -1.945974
  N      -4.550377      1.006226     -2.488538
  H      -5.198522      0.291241     -2.168897
  H      -4.615413      1.769393     -1.819027
43
Coordinates from ORCA-job 3_Cu4_Cys3 E -8719.701356870153
  Cu     -1.441244     -2.290573     -0.899112
  S       1.735572     -1.918765      1.950410
  S      -1.646504     -1.826272     -3.085376
  Cu     -0.298485     -2.383406      1.110502
  Cu     -0.178077     -0.532088     -2.141907
  Cu      1.209360     -0.682259      0.215036
  S       0.830638      0.996281     -1.056217
  C       1.872080     -0.724129      3.330876
  H       0.901733     -0.291250      3.575412
  H       2.230729     -1.281654      4.201371
  H       3.665240     -0.008955      2.396211
  C       2.858577      0.389655      3.021749
  C       2.192650      1.527748      2.265331
  O       1.051886      1.896233      2.414126
  O       3.083375      2.155099      1.465374
  H       2.609586      2.875255      0.997908
  N       3.347332      0.986555      4.280218
  H       3.858434      0.270560      4.789309
  H       4.020353      1.717118      4.059864
  C       2.266899      1.688601     -1.940704
  H       3.089170      1.844118     -1.239523
  H       2.594045      1.028659     -2.745204
  H       0.960750      2.844402     -3.177894
  C       1.815517      3.022351     -2.514888
  C       1.340029      3.876299     -1.353100
  O       1.964201      4.117828     -0.346239
  O       0.109683      4.411473     -1.569001
  H      -0.101150      4.897689     -0.750477
  N       2.937482      3.712253     -3.159104
  H       3.414055      3.047205     -3.761056
  H       2.588012      4.449184     -3.765263
  C      -3.063806     -0.710169     -3.401500
  H      -2.988181     -0.313128     -4.415443
  H      -3.968047     -1.321191     -3.338759
  H      -2.913101      0.088417     -1.416383
  C      -3.190787      0.439885     -2.418995
  C      -2.264385      1.589461     -2.766218
  O      -1.664933      1.754920     -3.804625
  O      -2.235460      2.480202     -1.751106
  H      -1.543977      3.133736     -1.970867
  N      -4.556210      0.997931     -2.475416
  H      -5.197877      0.282251     -2.144492
  H      -4.617178      1.764253     -1.809189
43
Coordinates from ORCA-job 3_Cu4_Cys3 E -8719.701400224432
  Cu     -1.433152     -2.274677     -0.887166
  S       1.726680     -1.918688      1.942896
  S      -1.649445     -1.828277     -3.076269
  Cu     -0.318776     -2.391734      1.136546
  Cu     -0.186043     -0.515184     -2.155572
  Cu      1.158062     -0.690286      0.211100
  S       0.811900      1.004293     -1.050324
  C       1.888192     -0.729926      3.324699
  H       0.921948     -0.299602      3.589454
  H       2.264115     -1.288846      4.186968
  H       3.657162     -0.006650      2.351618
  C       2.865746      0.386996      2.999538
  C       2.180674      1.528765      2.266555
  O       1.038821      1.886068      2.432775
  O       3.057018      2.173383      1.464186
  H       2.572323      2.895806      1.011538
  N       3.384785      0.977070      4.249067
  H       3.906588      0.257841      4.742544
  H       4.053857      1.707325      4.015935
  C       2.270445      1.692473     -1.900162
  H       3.074130      1.851307     -1.178655
  H       2.619090      1.028109     -2.691890
  H       0.997494      2.841489     -3.177872
  C       1.834947      3.022511     -2.493948
  C       1.329820      3.886256     -1.351946
  O       1.925116      4.132814     -0.329054
  O       0.109155      4.426394     -1.608136
  H      -0.121948      4.921871     -0.800802
  N       2.973610      3.707873     -3.113206
  H       3.464811      3.039233     -3.699037
  H       2.642110      4.443229     -3.731071
  C      -3.074196     -0.722611     -3.394537
  H      -3.006888     -0.336074     -4.413071
  H      -3.975787     -1.336084     -3.319863
  H      -2.911739      0.100454     -1.419305
  C      -3.199265      0.437847     -2.423999
  C      -2.279718      1.587026     -2.791051
  O      -1.683792      1.739815     -3.833123
  O      -2.251321      2.492405     -1.788632
  H      -1.562001      3.144640     -2.018316
  N      -4.567456      0.989025     -2.475217
  H      -5.202770      0.274776     -2.129398
  H      -4.626317      1.763330     -1.818162
43
Coordinates from ORCA-job 3_Cu4_Cys3 E -8719.701422189060
  Cu     -1.418645     -2.253740     -0.871875
  S       1.711241     -1.922565      1.938526
  S      -1.648518     -1.826525     -3.064867
  Cu     -0.341366     -2.394072      1.170349
  Cu     -0.191534     -0.493261     -2.166400
  Cu      1.110866     -0.688224      0.218166
  S       0.788467      1.016458     -1.040697
  C       1.906329     -0.743964      3.323992
  H       0.946435     -0.314167      3.612068
  H       2.299213     -1.307125      4.175804
  H       3.643767     -0.012633      2.302369
  C       2.875794      0.374919      2.981635
  C       2.170280      1.526552      2.284823
  O       1.027335      1.870132      2.470938
  O       3.032259      2.197262      1.487402
  H       2.535770      2.924086      1.054891
  N       3.437628      0.949695      4.219550
  H       3.971281      0.223035      4.688953
  H       4.103002      1.678433      3.971394
  C       2.268356      1.701969     -1.853291
  H       3.048832      1.874361     -1.109922
  H       2.645375      1.028390     -2.624065
  H       1.032371      2.829719     -3.186033
  C       1.846338      3.021883     -2.477263
  C       1.300841      3.900911     -1.364610
  O       1.858080      4.159369     -0.323510
  O       0.092868      4.443321     -1.672906
  H      -0.164479      4.953181     -0.882262
  N       3.000512      3.705706     -3.069262
  H       3.514487      3.031878     -3.628806
  H       2.687207      4.432182     -3.706505
  C      -3.083628     -0.735067     -3.384672
  H      -3.029381     -0.364686     -4.409873
  H      -3.982294     -1.350173     -3.290841
  H      -2.897225      0.124136     -1.425526
  C      -3.202344      0.440443     -2.432027
  C      -2.290767      1.585017     -2.832794
  O      -1.703361      1.713114     -3.882597
  O      -2.256791      2.513443     -1.851705
  H      -1.568951      3.161055     -2.097500
  N      -4.573355      0.984040     -2.469840
  H      -5.198863      0.273463     -2.099501
  H      -4.625449      1.769830     -1.826072
43
Coordinates from ORCA-job 3_Cu4_Cys3 E -8719.701426368772
  Cu     -1.402543     -2.236717     -0.868203
  S       1.717550     -1.923003      1.915015
  S      -1.654831     -1.821819     -3.060421
  Cu     -0.344052     -2.423334      1.184004
  Cu     -0.206491     -0.465956     -2.195667
  Cu      1.048888     -0.715767      0.194852
  S       0.782757      1.019539     -1.038768
  C       1.926690     -0.751816      3.304546
  H       0.966515     -0.340627      3.617657
  H       2.348875     -1.313337      4.143286
  H       3.623989      0.012830      2.242165
  C       2.869273      0.384182      2.945077
  C       2.127706      1.528165      2.274224
  O       0.977480      1.839076      2.471523
  O       2.967954      2.234548      1.483329
  H       2.450072      2.952530      1.061601
  N       3.455892      0.961398      4.170132
  H       4.013865      0.240910      4.620412
  H       4.102621      1.701528      3.906712
  C       2.288335      1.699273     -1.807091
  H       3.045306      1.870488     -1.039721
  H       2.688084      1.022486     -2.563673
  H       1.099990      2.826077     -3.183438
  C       1.891348      3.018033     -2.449479
  C       1.312903      3.906057     -1.361101
  O       1.832624      4.164279     -0.300635
  O       0.122818      4.458339     -1.718546
  H      -0.157132      4.979319     -0.943522
  N       3.066152      3.695789     -3.007034
  H       3.595030      3.018323     -3.548047
  H       2.776217      4.422463     -3.655057
  C      -3.103268     -0.745033     -3.370537
  H      -3.064277     -0.382997     -4.399436
  H      -3.995991     -1.366233     -3.260546
  H      -2.900619      0.128690     -1.419647
  C      -3.219056      0.436638     -2.424787
  C      -2.316508      1.583256     -2.842101
  O      -1.738147      1.706269     -3.897461
  O      -2.278118      2.518631     -1.868333
  H      -1.593103      3.165794     -2.122554
  N      -4.593113      0.971712     -2.451177
  H      -5.210491      0.259999     -2.069373
  H      -4.643210      1.761799     -1.812543
43
Coordinates from ORCA-job 3_Cu4_Cys3 E -8719.701505591280
  Cu     -1.412321     -2.240048     -0.861549
  S       1.728203     -1.929638      1.929981
  S      -1.654853     -1.823599     -3.052182
  Cu     -0.326720     -2.412765      1.176782
  Cu     -0.197790     -0.481420     -2.175641
  Cu      1.090761     -0.708552      0.205129
  S       0.790814      1.018523     -1.035577
  C       1.924054     -0.755559      3.320666
  H       0.961416     -0.342955      3.623811
  H       2.338282     -1.318661      4.162350
  H       3.641066      0.001284      2.284883
  C       2.873135      0.377606      2.970528
  C       2.144979      1.517871      2.278705
  O       0.994429      1.836619      2.460469
  O       2.997145      2.210593      1.488242
  H       2.487062      2.924205      1.050539
  N       3.437017      0.962526      4.202692
  H       3.989514      0.245971      4.665747
  H       4.085182      1.704114      3.947220
  C       2.278064      1.701788     -1.837062
  H       3.051609      1.872694     -1.086215
  H       2.660729      1.027588     -2.604742
  H       1.058172      2.826588     -3.186212
  C       1.863528      3.021007     -2.468397
  C       1.304876      3.901755     -1.364739
  O       1.848103      4.159599     -0.315982
  O       0.102327      4.445637     -1.691917
  H      -0.162037      4.962402     -0.908697
  N       3.024657      3.704082     -3.047863
  H       3.544319      3.029616     -3.601682
  H       2.716031      4.428731     -3.689851
  C      -3.093946     -0.736906     -3.373652
  H      -3.045609     -0.376512     -4.402755
  H      -3.989701     -1.354631     -3.268171
  H      -2.909836      0.130482     -1.420652
  C      -3.211483      0.445318     -2.428712
  C      -2.296081      1.586028     -2.833045
  O      -1.713151      1.712884     -3.885819
  O      -2.254766      2.514302     -1.853305
  H      -1.564316      3.157843     -2.102737
  N      -4.580813      0.991582     -2.474715
  H      -5.210123      0.283542     -2.105748
  H      -4.633946      1.780251     -1.834483
43
Coordinates from ORCA-job 3_Cu4_Cys3 E -8719.701529286793
  Cu     -1.405640     -2.227866     -0.846526
  S       1.726462     -1.937207      1.932924
  S      -1.650664     -1.817105     -3.040193
  Cu     -0.333759     -2.415393      1.200111
  Cu     -0.204322     -0.464842     -2.163951
  Cu      1.066878     -0.713871      0.210889
  S       0.785097      1.028773     -1.020529
  C       1.942455     -0.767069      3.324231
  H       0.983746     -0.359363      3.645786
  H       2.373782     -1.332271      4.155867
  H       3.636883      0.000809      2.260243
  C       2.880608      0.370913      2.962107
  C       2.136655      1.512894      2.290521
  O       0.985255      1.820187      2.485199
  O       2.977612      2.222589      1.502782
  H       2.459568      2.937522      1.076927
  N       3.466157      0.951503      4.186283
  H       4.028650      0.234134      4.635798
  H       4.107379      1.695994      3.922089
  C       2.279012      1.706405     -1.814498
  H       3.045113      1.883973     -1.057613
  H       2.669139      1.025809     -2.572709
  H       1.073601      2.816582     -3.187902
  C       1.868867      3.019377     -2.461197
  C       1.292974      3.907800     -1.372425
  O       1.819422      4.173391     -0.317148
  O       0.096429      4.450967     -1.723024
  H      -0.177728      4.976801     -0.948988
  N       3.034778      3.702546     -3.031507
  H       3.564904      3.025216     -3.571837
  H       2.730645      4.418852     -3.684986
  C      -3.096007     -0.740860     -3.370076
  H      -3.050278     -0.390415     -4.402696
  H      -3.988466     -1.362099     -3.257259
  H      -2.921757      0.143263     -1.424381
  C      -3.218801      0.449779     -2.436334
  C      -2.302313      1.586966     -2.847567
  O      -1.717028      1.704046     -3.900219
  O      -2.263550      2.524408     -1.876363
  H      -1.571805      3.165000     -2.130037
  N      -4.588133      0.994819     -2.493674
  H      -5.219017      0.289732     -2.121807
  H      -4.644818      1.789092     -1.860672
43
Coordinates from ORCA-job 3_Cu4_Cys3 E -8719.701586096393
  Cu     -1.401673     -2.198532     -0.822054
  S       1.714645     -1.946177      1.949147
  S      -1.646283     -1.808620     -3.021962
  Cu     -0.351769     -2.419212      1.241244
  Cu     -0.212140     -0.438540     -2.160991
  Cu      1.028442     -0.734978      0.217597
  S       0.775576      1.034554     -0.988698
  C       1.971276     -0.776461      3.334866
  H       1.021166     -0.373019      3.685664
  H       2.430890     -1.341428      4.151352
  H       3.626631     -0.003655      2.216094
  C       2.893720      0.363620      2.943938
  C       2.127104      1.505925      2.299216
  O       0.974844      1.797791      2.510487
  O       2.953120      2.236332      1.514305
  H       2.425698      2.950196      1.098838
  N       3.520016      0.944605      4.147858
  H       4.099495      0.228507      4.577277
  H       4.148902      1.691407      3.861752
  C       2.277409      1.709325     -1.771201
  H       3.032195      1.895614     -1.005106
  H       2.679027      1.022816     -2.517983
  H       1.089420      2.797375     -3.175608
  C       1.871028      3.013248     -2.437964
  C       1.270598      3.910263     -1.369968
  O       1.772463      4.186468     -0.305436
  O       0.082689      4.450505     -1.754013
  H      -0.206962      4.987179     -0.993112
  N       3.041008      3.699530     -2.996990
  H       3.590332      3.018675     -3.513266
  H       2.740653      4.398308     -3.671004
  C      -3.097578     -0.745587     -3.370173
  H      -3.051399     -0.411565     -4.408161
  H      -3.986665     -1.370051     -3.248212
  H      -2.942185      0.162651     -1.435456
  C      -3.228297      0.458097     -2.453740
  C      -2.306954      1.589330     -2.870765
  O      -1.716580      1.694619     -3.922057
  O      -2.269746      2.536145     -1.908806
  H      -1.574488      3.171894     -2.166004
  N      -4.596126      1.003790     -2.533412
  H      -5.232528      0.304398     -2.160242
  H      -4.658990      1.806440     -1.911615
43
Coordinates from ORCA-job 3_Cu4_Cys3 E -8719.701559103491
  Cu     -1.372834     -2.172903     -0.811992
  S       1.714438     -1.954952      1.938803
  S      -1.644000     -1.798268     -3.005686
  Cu     -0.353025     -2.432598      1.262438
  Cu     -0.215699     -0.402451     -2.183620
  Cu      0.985049     -0.747935      0.204810
  S       0.771954      1.040037     -0.981820
  C       1.989508     -0.787764      3.323062
  H       1.042553     -0.398500      3.697471
  H       2.475982     -1.350208      4.125568
  H       3.604639      0.011102      2.165447
  C       2.887414      0.364894      2.915436
  C       2.092744      1.503669      2.299857
  O       0.936111      1.767905      2.521942
  O       2.900847      2.265818      1.526638
  H       2.359958      2.977875      1.126013
  N       3.540561      0.946334      4.105114
  H       4.139557      0.234544      4.514327
  H       4.152430      1.701729      3.805210
  C       2.291662      1.708668     -1.735384
  H       3.028232      1.900133     -0.953279
  H       2.709968      1.016679     -2.467936
  H       1.134188      2.783923     -3.173627
  C       1.898261      3.007372     -2.419962
  C       1.270850      3.911138     -1.373319
  O       1.746427      4.197076     -0.299397
  O       0.090718      4.446126     -1.788953
  H      -0.214205      4.991598     -1.040230
  N       3.078259      3.694079     -2.957521
  H       3.646063      3.010394     -3.449578
  H       2.790395      4.380438     -3.649601
  C      -3.107004     -0.751222     -3.354104
  H      -3.071533     -0.428559     -4.396082
  H      -3.989690     -1.381771     -3.217269
  H      -2.953144      0.174470     -1.428674
  C      -3.239651      0.460706     -2.449432
  C      -2.320513      1.588965     -2.878805
  O      -1.737620      1.687341     -3.935034
  O      -2.275576      2.541886     -1.923123
  H      -1.579917      3.173377     -2.189833
  N      -4.608501      1.003236     -2.535029
  H      -5.244595      0.306205     -2.156847
  H      -4.673279      1.811199     -1.920362
43
Coordinates from ORCA-job 3_Cu4_Cys3 E -8719.701549468233
  Cu     -1.380795     -2.168587     -0.806249
  S       1.698839     -1.960305      1.970348
  S      -1.627894     -1.778005     -3.014262
  Cu     -0.376775     -2.448002      1.287441
  Cu     -0.224821     -0.389079     -2.145666
  Cu      0.960252     -0.778333      0.222059
  S       0.780981      1.041950     -0.940026
  C       1.997912     -0.777902      3.337194
  H       1.056781     -0.383473      3.720813
  H       2.494825     -1.331580      4.139258
  H       3.587176      0.009170      2.135999
  C       2.891844      0.368838      2.903707
  C       2.090522      1.512195      2.305670
  O       0.935688      1.774499      2.538900
  O       2.892331      2.279383      1.530995
  H       2.348960      2.991663      1.134554
  N       3.579666      0.950066      4.073898
  H       4.186857      0.236895      4.468269
  H       4.186146      1.701901      3.754617
  C       2.292027      1.703783     -1.717590
  H       3.038572      1.900339     -0.946400
  H       2.699798      1.006138     -2.450799
  H       1.116544      2.766279     -3.150703
  C       1.888959      2.996581     -2.407749
  C       1.272055      3.907893     -1.361006
  O       1.760164      4.206242     -0.296091
  O       0.083301      4.433798     -1.765268
  H      -0.213444      4.985302     -1.017732
  N       3.060641      3.681674     -2.965594
  H       3.631563      2.992726     -3.446640
  H       2.763944      4.351418     -3.670039
  C      -3.093026     -0.740593     -3.380198
  H      -3.040657     -0.406159     -4.417757
  H      -3.974038     -1.378155     -3.266214
  H      -2.979304      0.168231     -1.443858
  C      -3.245895      0.462396     -2.467703
  C      -2.318366      1.593784     -2.870666
  O      -1.724997      1.704191     -3.920197
  O      -2.279006      2.532902     -1.901294
  H      -1.578150      3.165334     -2.151953
  N      -4.613027      1.005524     -2.575193
  H      -5.256852      0.304336     -2.218203
  H      -4.691318      1.806520     -1.953034
43
Coordinates from ORCA-job 3_Cu4_Cys3 E -8719.701619033869
  Cu     -1.404502     -2.179696     -0.813920
  S       1.689730     -1.951865      1.981375
  S      -1.634011     -1.798755     -3.020453
  Cu     -0.383893     -2.416190      1.269915
  Cu     -0.209833     -0.423067     -2.156400
  Cu      1.004597     -0.757994      0.228111
  S       0.779842      1.029290     -0.960259
  C       1.969695     -0.761783      3.345159
  H       1.026000     -0.346070      3.698966
  H       2.433056     -1.316800      4.166222
  H       3.610350     -0.014770      2.187439
  C       2.897173      0.365229      2.928348
  C       2.133515      1.514795      2.293556
  O       0.985012      1.814631      2.513286
  O       2.958869      2.238615      1.502258
  H       2.434845      2.956138      1.089229
  N       3.556271      0.945727      4.115312
  H       4.138788      0.226217      4.534734
  H       4.185507      1.684692      3.810198
  C       2.275688      1.706176     -1.753348
  H       3.034508      1.897565     -0.992601
  H       2.674236      1.018961     -2.501062
  H       1.070534      2.783546     -3.150984
  C       1.858216      3.006091     -2.421808
  C       1.263755      3.905161     -1.352421
  O       1.776659      4.194806     -0.296791
  O       0.064476      4.430233     -1.723845
  H      -0.220735      4.967288     -0.961839
  N       3.020118      3.694695     -2.994707
  H       3.578304      3.010328     -3.496495
  H       2.712341      4.375955     -3.682992
  C      -3.083467     -0.740615     -3.387489
  H      -3.022215     -0.399480     -4.422360
  H      -3.971973     -1.369131     -3.283173
  H      -2.964670      0.157454     -1.445212
  C      -3.229650      0.457933     -2.467516
  C      -2.298779      1.589744     -2.861690
  O      -1.702293      1.707539     -3.908354
  O      -2.261655      2.522452     -1.885673
  H      -1.561261      3.157444     -2.131422
  N      -4.594656      1.007652     -2.571929
  H      -5.240870      0.306701     -2.219083
  H      -4.669638      1.804939     -1.944640
43
Coordinates from ORCA-job 3_Cu4_Cys3 E -8719.701642437278
  Cu     -1.391043     -2.178882     -0.813024
  S       1.700175     -1.953632      1.965557
  S      -1.635542     -1.798072     -3.013546
  Cu     -0.372971     -2.418735      1.266774
  Cu     -0.211040     -0.414341     -2.164410
  Cu      0.998704     -0.747167      0.223036
  S       0.778912      1.035662     -0.970815
  C       1.974524     -0.773126      3.338197
  H       1.028979     -0.366179      3.697141
  H       2.443184     -1.331259      4.154151
  H       3.609016     -0.007072      2.184695
  C       2.893441      0.363161      2.928224
  C       2.120828      1.510590      2.300760
  O       0.969660      1.799375      2.520485
  O       2.941702      2.248348      1.517394
  H       2.411778      2.965138      1.110957
  N       3.548646      0.941465      4.118509
  H       4.136614      0.223639      4.533204
  H       4.172472      1.686695      3.817549
  C       2.281424      1.708716     -1.754247
  H       3.035155      1.900833     -0.988694
  H       2.684629      1.019222     -2.497377
  H       1.090061      2.786237     -3.163621
  C       1.871353      3.008473     -2.427537
  C       1.268543      3.909489     -1.364418
  O       1.771704      4.198081     -0.303977
  O       0.074591      4.438372     -1.747699
  H      -0.214696      4.978108     -0.988915
  N       3.039308      3.695144     -2.990354
  H       3.599706      3.010254     -3.488895
  H       2.738737      4.378537     -3.679699
  C      -3.089879     -0.744622     -3.375084
  H      -3.036705     -0.408074     -4.411919
  H      -3.975805     -1.375214     -3.261952
  H      -2.963103      0.163181     -1.437579
  C      -3.234163      0.457786     -2.460030
  C      -2.307848      1.589494     -2.865121
  O      -1.716826      1.702426     -3.915341
  O      -2.267893      2.527325     -1.894356
  H      -1.569454      3.161953     -2.146457
  N      -4.600896      1.003914     -2.559798
  H      -5.243552      0.302896     -2.200683
  H      -4.674448      1.803643     -1.935446
43
Coordinates from ORCA-job 3_Cu4_Cys3 E -8719.701654021108
  Cu     -1.385153     -2.175645     -0.813760
  S       1.699630     -1.954582      1.967840
  S      -1.633008     -1.793408     -3.014650
  Cu     -0.373522     -2.425286      1.269377
  Cu     -0.211293     -0.407967     -2.167247
  Cu      0.990739     -0.753084      0.222424
  S       0.782141      1.034545     -0.968379
  C       1.975010     -0.772189      3.338426
  H       1.029600     -0.365978      3.698581
  H       2.446014     -1.328158      4.154507
  H       3.604620     -0.005459      2.178653
  C       2.891533      0.364696      2.924617
  C       2.116010      1.511161      2.299077
  O       0.964435      1.797594      2.519733
  O       2.935055      2.251517      1.516131
  H       2.403436      2.967576      1.110580
  N       3.550703      0.944474      4.112013
  H       4.141411      0.227632      4.524541
  H       4.172352      1.690284      3.807955
  C       2.284978      1.707633     -1.751397
  H       3.038331      1.900680     -0.985649
  H       2.688838      1.017744     -2.493845
  H       1.093693      2.784381     -3.161591
  C       1.874770      3.006970     -2.425379
  C       1.271393      3.908031     -1.362470
  O       1.774212      4.196848     -0.301911
  O       0.077197      4.436473     -1.745811
  H      -0.212009      4.976562     -0.987156
  N       3.042499      3.693837     -2.988478
  H       3.605083      3.008378     -3.483783
  H       2.742124      4.374679     -3.680410
  C      -3.090065     -0.743526     -3.375556
  H      -3.037619     -0.405670     -4.412029
  H      -3.974505     -1.376414     -3.263181
  H      -2.966697      0.162932     -1.437013
  C      -3.236629      0.457793     -2.459677
  C      -2.310264      1.590130     -2.863213
  O      -1.721384      1.705354     -3.914450
  O      -2.267733      2.525133     -1.889990
  H      -1.569129      3.159848     -2.141407
  N      -4.603527      1.003314     -2.560921
  H      -5.246491      0.301218     -2.204382
  H      -4.678795      1.801734     -1.935078
43
Coordinates from ORCA-job 3_Cu4_Cys3 E -8719.701665285680
  Cu     -1.375215     -2.171382     -0.819554
  S       1.695269     -1.955525      1.974627
  S      -1.624725     -1.784095     -3.021584
  Cu     -0.379020     -2.433487      1.271215
  Cu     -0.209598     -0.396561     -2.172314
  Cu      0.978566     -0.760316      0.224222
  S       0.789100      1.033344     -0.963777
  C       1.971414     -0.768785      3.340873
  H       1.026600     -0.360087      3.699867
  H       2.441942     -1.321281      4.159582
  H       3.599691     -0.006493      2.176038
  C       2.888648      0.366326      2.922622
  C       2.113647      1.512413      2.295994
  O       0.962260      1.799932      2.516232
  O       2.932996      2.251865      1.512228
  H       2.400856      2.967758      1.107000
  N       3.550906      0.948145      4.107346
  H       4.142778      0.231840      4.519174
  H       4.172064      1.693109      3.800095
  C       2.289202      1.706389     -1.752029
  H       3.045323      1.901213     -0.989283
  H       2.691080      1.015820     -2.494924
  H       1.092803      2.782380     -3.159142
  C       1.876464      3.005122     -2.425733
  C       1.276553      3.906217     -1.360739
  O       1.782985      4.195008     -0.301909
  O       0.080675      4.434170     -1.739642
  H      -0.205693      4.974109     -0.979828
  N       3.042162      3.691505     -2.993399
  H       3.607213      3.004436     -3.483569
  H       2.740545      4.367372     -3.689550
  C      -3.086565     -0.740179     -3.379176
  H      -3.035343     -0.397090     -4.414051
  H      -3.968074     -1.377797     -3.270161
  H      -2.970423      0.158814     -1.436286
  C      -3.238321      0.456530     -2.458605
  C      -2.313313      1.592472     -2.855800
  O      -1.728360      1.716249     -3.908297
  O      -2.267963      2.519325     -1.875252
  H      -1.570312      3.156365     -2.123495
  N      -4.606175      0.999687     -2.561265
  H      -5.248841      0.293540     -2.212118
  H      -4.685817      1.793407     -1.929994
43
Coordinates from ORCA-job 3_Cu4_Cys3 E -8719.701670478782
  Cu     -1.372262     -2.168130     -0.819320
  S       1.691565     -1.956201      1.980536
  S      -1.621630     -1.782558     -3.022067
  Cu     -0.383049     -2.431633      1.273546
  Cu     -0.206089     -0.395849     -2.172794
  Cu      0.976637     -0.761205      0.227119
  S       0.792700      1.032759     -0.963594
  C       1.968222     -0.768172      3.345207
  H       1.024036     -0.356312      3.702370
  H       2.436323     -1.319915      4.165846
  H       3.599643     -0.011320      2.181086
  C       2.888603      0.364297      2.926249
  C       2.116877      1.511113      2.296993
  O       0.966182      1.802192      2.516608
  O       2.938189      2.247197      1.512024
  H       2.407450      2.963684      1.105888
  N       3.550803      0.946297      4.110926
  H       4.141285      0.229381      4.523751
  H       4.173602      1.689791      3.803363
  C       2.288639      1.707958     -1.757720
  H       3.047595      1.904747     -0.998189
  H       2.688895      1.017833     -2.501897
  H       1.085322      2.783539     -3.159861
  C       1.871636      3.006502     -2.429416
  C       1.275052      3.905809     -1.360862
  O       1.786361      4.194807     -0.304382
  O       0.076295      4.431827     -1.733185
  H      -0.207486      4.970116     -0.971167
  N       3.034370      3.694130     -3.001264
  H       3.599773      3.007408     -3.491405
  H       2.729936      4.368365     -3.697704
  C      -3.083850     -0.739380     -3.379800
  H      -3.032557     -0.395610     -4.414419
  H      -3.965035     -1.377565     -3.271493
  H      -2.969698      0.159367     -1.436403
  C      -3.236304      0.456953     -2.459032
  C      -2.310547      1.592542     -2.855518
  O      -1.727718      1.717701     -3.909078
  O      -2.262051      2.517067     -1.873147
  H      -1.564160      3.153917     -2.121128
  N      -4.603798      1.000818     -2.563405
  H      -5.247335      0.294195     -2.216883
  H      -4.684440      1.793317     -1.930740
43
Coordinates from ORCA-job 3_Cu4_Cys3 E -8719.701680928887
  Cu     -1.366721     -2.159790     -0.826194
  S       1.683405     -1.953912      1.982971
  S      -1.616774     -1.781868     -3.029279
  Cu     -0.393565     -2.422932      1.271503
  Cu     -0.198022     -0.393095     -2.189564
  Cu      0.971064     -0.759641      0.225924
  S       0.798019      1.030258     -0.970936
  C       1.960349     -0.766476      3.347544
  H       1.017281     -0.349745      3.702184
  H       2.423693     -1.319263      4.170264
  H       3.601101     -0.017186      2.191377
  C       2.886658      0.362376      2.931219
  C       2.121625      1.509655      2.294826
  O       0.971782      1.806854      2.511245
  O       2.947169      2.238952      1.507747
  H       2.419128      2.956293      1.099429
  N       3.543230      0.944735      4.118801
  H       4.128998      0.226688      4.536431
  H       4.170371      1.685734      3.813960
  C       2.290715      1.710234     -1.766049
  H       3.050864      1.908197     -1.007844
  H       2.691710      1.022350     -2.511857
  H       1.081880      2.787705     -3.162942
  C       1.870544      3.009517     -2.434722
  C       1.276892      3.906261     -1.362266
  O       1.791906      4.193198     -0.306967
  O       0.076880      4.432567     -1.729517
  H      -0.205360      4.967898     -0.964916
  N       3.031319      3.697949     -3.008839
  H       3.596998      3.011748     -3.499212
  H       2.725572      4.372292     -3.704465
  C      -3.081921     -0.740287     -3.378684
  H      -3.036345     -0.395132     -4.413084
  H      -3.961510     -1.380044     -3.266963
  H      -2.961215      0.155669     -1.434166
  C      -3.232743      0.454279     -2.455183
  C      -2.311249      1.592735     -2.853224
  O      -1.733503      1.722125     -3.909006
  O      -2.260694      2.514922     -1.868856
  H      -1.565077      3.153864     -2.117878
  N      -4.601899      0.995186     -2.553076
  H      -5.242290      0.285643     -2.206735
  H      -4.682282      1.785273     -1.917362
43
Coordinates from ORCA-job 3_Cu4_Cys3 E -8719.701698450988
  Cu     -1.363543     -2.158298     -0.828049
  S       1.680620     -1.954120      1.981323
  S      -1.615642     -1.782275     -3.031634
  Cu     -0.395569     -2.424149      1.270198
  Cu     -0.194452     -0.394452     -2.192168
  Cu      0.968404     -0.759114      0.225216
  S       0.797694      1.030891     -0.973222
  C       1.959305     -0.768872      3.347365
  H       1.016850     -0.352558      3.704120
  H       2.423955     -1.323142      4.168357
  H       3.600950     -0.018484      2.193246
  C       2.884941      0.360658      2.931838
  C       2.119809      1.506889      2.293827
  O       0.969112      1.802533      2.507689
  O       2.946165      2.237184      1.508515
  H       2.418302      2.954090      1.099297
  N       3.539235      0.944136      4.120125
  H       4.123717      0.226374      4.539964
  H       4.167143      1.684771      3.816055
  C       2.290832      1.711788     -1.766524
  H       3.050073      1.910332     -1.007562
  H       2.693233      1.024056     -2.511762
  H       1.084026      2.788142     -3.166003
  C       1.870917      3.010631     -2.436084
  C       1.274228      3.907159     -1.365030
  O       1.785979      4.193021     -0.307872
  O       0.075868      4.434909     -1.735686
  H      -0.208143      4.969977     -0.971477
  N       3.032169      3.700283     -3.007812
  H       3.598591      3.015050     -3.498723
  H       2.726863      4.375611     -3.702710
  C      -3.082470     -0.740958     -3.375048
  H      -3.042494     -0.397789     -4.410347
  H      -3.961580     -1.380328     -3.257304
  H      -2.951415      0.157596     -1.432707
  C      -3.228799      0.455015     -2.452585
  C      -2.309763      1.592894     -2.857151
  O      -1.733930      1.718536     -3.914470
  O      -2.258502      2.519314     -1.876616
  H      -1.563599      3.157644     -2.129065
  N      -4.598791      0.994835     -2.543382
  H      -5.236613      0.285665     -2.191512
  H      -4.675693      1.786337     -1.908992
43
Coordinates from ORCA-job 3_Cu4_Cys3 E -8719.701711000713
  Cu     -1.357768     -2.159706     -0.832913
  S       1.683446     -1.955830      1.974381
  S      -1.614074     -1.781937     -3.036993
  Cu     -0.390639     -2.432968      1.263360
  Cu     -0.189195     -0.396568     -2.196297
  Cu      0.967965     -0.763000      0.220414
  S       0.798016      1.030748     -0.975009
  C       1.958664     -0.773392      3.343801
  H       1.014929     -0.361445      3.702232
  H       2.425733     -1.329328      4.162314
  H       3.600505     -0.015073      2.195315
  C       2.880476      0.360254      2.932041
  C       2.112410      1.503826      2.292903
  O       0.959750      1.794105      2.503261
  O       2.938573      2.238526      1.511615
  H       2.409900      2.953847      1.100703
  N       3.528695      0.945378      4.122795
  H       4.112869      0.229183      4.545630
  H       4.155701      1.687831      3.821503
  C       2.292249      1.711836     -1.766118
  H       3.050333      1.910230     -1.006040
  H       2.695965      1.024142     -2.510717
  H       1.088041      2.786124     -3.168674
  C       1.873055      3.009897     -2.437109
  C       1.273491      3.907844     -1.368975
  O       1.779790      4.191283     -0.308584
  O       0.079868      4.441212     -1.746949
  H      -0.206164      4.978076     -0.984697
  N       3.034846      3.700653     -3.006923
  H       3.600133      3.016612     -3.500879
  H       2.729248      4.378388     -3.699449
  C      -3.084227     -0.741203     -3.368485
  H      -3.054340     -0.401109     -4.405132
  H      -3.962184     -1.380145     -3.240254
  H      -2.934211      0.160897     -1.429705
  C      -3.222401      0.456884     -2.447137
  C      -2.308306      1.594508     -2.862311
  O      -1.733738      1.713622     -3.921040
  O      -2.258787      2.529110     -1.889079
  H      -1.566262      3.167551     -2.147415
  N      -4.593744      0.994780     -2.524603
  H      -5.226634      0.286731     -2.161785
  H      -4.663995      1.789404     -1.893358
43
Coordinates from ORCA-job 3_Cu4_Cys3 E -8719.701716496551
  Cu     -1.351996     -2.160870     -0.836268
  S       1.684266     -1.957729      1.968457
  S      -1.611445     -1.780905     -3.040081
  Cu     -0.388883     -2.438920      1.260442
  Cu     -0.186168     -0.395228     -2.198320
  Cu      0.963478     -0.765333      0.216533
  S       0.798158      1.032674     -0.974868
  C       1.957938     -0.777246      3.340119
  H       1.013295     -0.369179      3.700518
  H       2.427903     -1.333890      4.156486
  H       3.595686     -0.012065      2.190544
  C       2.875965      0.359658      2.929383
  C       2.103976      1.502887      2.294239
  O       0.950904      1.789652      2.507033
  O       2.927289      2.241224      1.513546
  H       2.396971      2.955731      1.103363
  N       3.524928      0.943933      4.120126
  H       4.110571      0.228088      4.541452
  H       4.150212      1.687900      3.819078
  C       2.295190      1.713137     -1.761561
  H       3.050147      1.913043     -0.998777
  H       2.702111      1.024275     -2.503304
  H       1.094798      2.783145     -3.169975
  C       1.877393      3.009334     -2.436537
  C       1.274315      3.910511     -1.373358
  O       1.774619      4.193820     -0.310076
  O       0.085289      4.447891     -1.760247
  H      -0.203229      4.988072     -1.001387
  N       3.040392      3.699914     -3.004694
  H       3.605534      3.015760     -3.498732
  H       2.735378      4.377667     -3.697538
  C      -3.085009     -0.742164     -3.363303
  H      -3.062322     -0.403841     -4.400679
  H      -3.961348     -1.381859     -3.228170
  H      -2.923215      0.162346     -1.426880
  C      -3.218724      0.457034     -2.442650
  C      -2.309061      1.595552     -2.864697
  O      -1.736096      1.711881     -3.924564
  O      -2.260819      2.534751     -1.895612
  H      -1.570792      3.174028     -2.158227
  N      -4.591366      0.992585     -2.511436
  H      -5.220423      0.285057     -2.141080
  H      -4.657825      1.789460     -1.882659
43
Coordinates from ORCA-job 3_Cu4_Cys3 E -8719.701713879835
  Cu     -1.349305     -2.162292     -0.841046
  S       1.685176     -1.958496      1.966226
  S      -1.610125     -1.780320     -3.044425
  Cu     -0.386843     -2.442125      1.255981
  Cu     -0.182947     -0.396088     -2.202797
  Cu      0.964430     -0.767777      0.212940
  S       0.800002      1.030990     -0.976851
  C       1.953804     -0.776714      3.337922
  H       1.007557     -0.369707      3.695226
  H       2.422012     -1.332383      4.155933
  H       3.592907     -0.010454      2.191047
  C       2.871920      0.360779      2.928846
  C       2.100407      1.503832      2.292735
  O       0.946821      1.789836      2.503577
  O       2.924750      2.242870      1.513915
  H       2.395044      2.957229      1.102779
  N       3.518759      0.945281      4.120643
  H       4.104445      0.229862      4.542615
  H       4.143857      1.689752      3.820457
  C       2.297038      1.712401     -1.763047
  H       3.051729      1.912497     -1.000078
  H       2.704298      1.023874     -2.504871
  H       1.094792      2.781445     -3.170305
  C       1.878027      3.008216     -2.437717
  C       1.275874      3.909411     -1.374208
  O       1.776234      4.191687     -0.310707
  O       0.087532      4.448249     -1.761194
  H      -0.200191      4.989019     -1.002482
  N       3.040098      3.699513     -3.007323
  H       3.604258      3.015680     -3.502994
  H       2.733625      4.377481     -3.699344
  C      -3.084389     -0.740823     -3.361890
  H      -3.064493     -0.400375     -4.398647
  H      -3.960273     -1.380880     -3.225751
  H      -2.916417      0.160321     -1.424399
  C      -3.215340      0.456623     -2.438747
  C      -2.307193      1.596019     -2.861770
  O      -1.736088      1.713519     -3.922525
  O      -2.257991      2.534695     -1.892161
  H      -1.569031      3.174622     -2.155919
  N      -4.588363      0.991929     -2.501983
  H      -5.215880      0.284145     -2.129490
  H      -4.652547      1.788441     -1.872533
43
Coordinates from ORCA-job 3_Cu4_Cys3 E -8719.701728242098
  Cu     -1.348734     -2.168039     -0.848202
  S       1.687671     -1.959214      1.964975
  S      -1.607891     -1.780553     -3.051268
  Cu     -0.382423     -2.444795      1.248283
  Cu     -0.177804     -0.401424     -2.205515
  Cu      0.971605     -0.768967      0.209413
  S       0.803608      1.028239     -0.980696
  C       1.944483     -0.774054      3.336278
  H       0.995006     -0.366178      3.683780
  H       2.404878     -1.327910      4.159863
  H       3.592181     -0.011340      2.199413
  C       2.867104      0.361814      2.932106
  C       2.101230      1.505316      2.289767
  O       0.947796      1.795135      2.495942
  O       2.930068      2.239689      1.511456
  H       2.403485      2.954135      1.096524
  N       3.506828      0.946672      4.127624
  H       4.089845      0.231264      4.553336
  H       4.134148      1.690594      3.830642
  C       2.298391      1.711827     -1.769975
  H       3.055107      1.911364     -1.008930
  H       2.703640      1.024534     -2.513941
  H       1.087809      2.780628     -3.169688
  C       1.875138      3.007631     -2.441566
  C       1.279408      3.908502     -1.374515
  O       1.784189      4.188138     -0.312481
  O       0.091060      4.450584     -1.756900
  H      -0.192425      4.991750     -0.996938
  N       3.033722      3.699862     -3.017853
  H       3.593123      3.016563     -3.519710
  H       2.722315      4.379337     -3.706227
  C      -3.081508     -0.738240     -3.362163
  H      -3.062984     -0.392641     -4.397276
  H      -3.957343     -1.378699     -3.228084
  H      -2.908182      0.155442     -1.421443
  C      -3.210016      0.455295     -2.433922
  C      -2.303437      1.596864     -2.854857
  O      -1.733607      1.718373     -3.915823
  O      -2.254209      2.532681     -1.882375
  H      -1.566775      3.174368     -2.145762
  N      -4.583547      0.990317     -2.490891
  H      -5.209375      0.281574     -2.117376
  H      -4.645596      1.785345     -1.859387
43
Coordinates from ORCA-job 3_Cu4_Cys3 E -8719.701726194218
  Cu     -1.349032     -2.166263     -0.847339
  S       1.684231     -1.959572      1.966486
  S      -1.606682     -1.780656     -3.050476
  Cu     -0.386429     -2.442269      1.251488
  Cu     -0.177260     -0.400227     -2.207165
  Cu      0.967992     -0.769590      0.208556
  S       0.804538      1.027657     -0.981368
  C       1.943125     -0.773525      3.336636
  H       0.994223     -0.364445      3.684279
  H       2.403440     -1.326877      4.160608
  H       3.589674     -0.013041      2.196632
  C       2.866442      0.361149      2.930648
  C       2.100859      1.505492      2.289519
  O       0.947767      1.796138      2.496607
  O       2.929716      2.239675      1.511004
  H       2.403195      2.954688      1.096904
  N       3.509114      0.945451      4.124928
  H       4.092685      0.229544      4.549081
  H       4.136373      1.688909      3.826579
  C       2.299688      1.712489     -1.769120
  H       3.055363      1.912736     -1.007228
  H       2.706255      1.025336     -2.512494
  H       1.089056      2.780459     -3.169506
  C       1.875924      3.008013     -2.441090
  C       1.279316      3.909038     -1.374543
  O       1.783311      4.189158     -0.312259
  O       0.091452      4.451332     -1.758126
  H      -0.192344      4.993068     -0.998684
  N       3.034244      3.701002     -3.017085
  H       3.594398      3.017854     -3.518261
  H       2.722510      4.379738     -3.706039
  C      -3.080445     -0.738758     -3.362102
  H      -3.061317     -0.392544     -4.396980
  H      -3.955996     -1.379785     -3.229064
  H      -2.909161      0.154461     -1.420767
  C      -3.210123      0.454335     -2.433446
  C      -2.303631      1.596318     -2.853460
  O      -1.734350      1.718819     -3.914574
  O      -2.253718      2.531053     -1.880019
  H      -1.566365      3.172903     -2.143264
  N      -4.583777      0.989008     -2.491487
  H      -5.209646      0.279874     -2.118834
  H      -4.646630      1.783633     -1.859537
43
Coordinates from ORCA-job 3_Cu4_Cys3 E -8719.701747373945
  Cu     -1.347422     -2.165019     -0.846874
  S       1.682313     -1.960087      1.967409
  S      -1.605844     -1.780093     -3.049831
  Cu     -0.387748     -2.442181      1.253974
  Cu     -0.176622     -0.399058     -2.208632
  Cu      0.964993     -0.770408      0.207590
  S       0.804984      1.027295     -0.981804
  C       1.942909     -0.773806      3.336966
  H       0.994562     -0.364021      3.685326
  H       2.403689     -1.326857      4.160897
  H       3.588521     -0.014117      2.195087
  C       2.866037      0.360514      2.929674
  C       2.100081      1.504675      2.288772
  O       0.946610      1.794485      2.495066
  O       2.929001      2.239918      1.511231
  H       2.401936      2.954672      1.097317
  N       3.510039      0.945165      4.123060
  H       4.094175      0.229329      4.546581
  H       4.137000      1.688526      3.823816
  C       2.300527      1.712808     -1.768373
  H       3.055459      1.913512     -1.005866
  H       2.708146      1.025682     -2.511225
  H       1.090962      2.780264     -3.170246
  C       1.876748      3.008070     -2.440800
  C       1.278174      3.908687     -1.374813
  O       1.780494      4.188751     -0.311725
  O       0.090720      4.450923     -1.759879
  H      -0.194010      4.992811     -1.000857
  N       3.035201      3.702127     -3.015276
  H       3.596692      3.019480     -3.515655
  H       2.723668      4.380548     -3.704646
  C      -3.080307     -0.738982     -3.360991
  H      -3.061982     -0.393314     -4.396058
  H      -3.955553     -1.380258     -3.227061
  H      -2.908579      0.155536     -1.420050
  C      -3.209980      0.454605     -2.432826
  C      -2.303880      1.596365     -2.854098
  O      -1.735646      1.718190     -3.915853
  O      -2.252968      2.531532     -1.881291
  H      -1.565584      3.173062     -2.145254
  N      -4.583740      0.988994     -2.490701
  H      -5.209238      0.279742     -2.117623
  H      -4.646553      1.783716     -1.858819
43
Coordinates from ORCA-job 3_Cu4_Cys3 E -8719.701725571713
  Cu     -1.346356     -2.165304     -0.846482
  S       1.683296     -1.961312      1.965991
  S      -1.605528     -1.779614     -3.049273
  Cu     -0.386523     -2.443518      1.255051
  Cu     -0.175703     -0.399293     -2.208775
  Cu      0.963607     -0.770786      0.206456
  S       0.804785      1.027780     -0.982145
  C       1.945236     -0.777229      3.337155
  H       0.997165     -0.369262      3.688417
  H       2.408665     -1.331004      4.159138
  H       3.588212     -0.013276      2.194338
  C       2.865595      0.359287      2.929900
  C       2.096577      1.502086      2.290386
  O       0.942020      1.788037      2.496079
  O       2.923878      2.241214      1.514664
  H       2.394532      2.954558      1.101243
  N       3.509536      0.944444      4.123016
  H       4.095680      0.229533      4.545337
  H       4.134583      1.689412      3.823749
  C       2.300981      1.713596     -1.767203
  H       3.054612      1.915452     -1.003713
  H       2.710316      1.025973     -2.508698
  H       1.093579      2.779106     -3.172630
  C       1.877595      3.007880     -2.441615
  C       1.276075      3.909208     -1.377742
  O       1.774907      4.189026     -0.312955
  O       0.090462      4.452677     -1.766993
  H      -0.195868      4.995840     -1.009485
  N       3.036664      3.702583     -3.014088
  H       3.599060      3.020367     -3.514055
  H       2.725738      4.381237     -3.703532
  C      -3.080919     -0.738997     -3.358225
  H      -3.065179     -0.395180     -4.393940
  H      -3.955892     -1.379953     -3.220998
  H      -2.904616      0.158870     -1.419111
  C      -3.208598      0.456188     -2.431649
  C      -2.303593      1.597160     -2.857125
  O      -1.736717      1.716184     -3.919935
  O      -2.251759      2.534968     -1.887070
  H      -1.564860      3.176012     -2.153371
  N      -4.582556      0.990223     -2.487053
  H      -5.206868      0.281497     -2.110962
  H      -4.643833      1.786110     -1.856458
43
Coordinates from ORCA-job 3_Cu4_Cys3 E -8719.701729725379
  Cu     -1.347242     -2.166288     -0.847288
  S       1.683127     -1.961116      1.965528
  S      -1.605337     -1.780042     -3.050261
  Cu     -0.386928     -2.443823      1.254268
  Cu     -0.175365     -0.400418     -2.208457
  Cu      0.963575     -0.770920      0.206324
  S       0.804077      1.027870     -0.981927
  C       1.944844     -0.777049      3.336684
  H       0.996758     -0.369080      3.687946
  H       2.408268     -1.330848      4.158651
  H       3.588237     -0.013036      2.194431
  C       2.865276      0.359499      2.929652
  C       2.096405      1.502156      2.289706
  O       0.941926      1.788381      2.495521
  O       2.923698      2.240812      1.513545
  H       2.394509      2.954167      1.099923
  N       3.508706      0.944808      4.122947
  H       4.094584      0.229959      4.545726
  H       4.133900      1.689729      3.823895
  C       2.300314      1.713466     -1.767053
  H       3.054086      1.915050     -1.003608
  H       2.709475      1.025877     -2.508677
  H       1.093031      2.779588     -3.172174
  C       1.877323      3.007955     -2.441306
  C       1.276432      3.909510     -1.377343
  O       1.775602      4.189071     -0.312631
  O       0.091011      4.453550     -1.766422
  H      -0.195056      4.996707     -1.008812
  N       3.036633      3.702124     -3.013898
  H       3.598283      3.019852     -3.514621
  H       2.725924      4.381513     -3.702716
  C      -3.080708     -0.739104     -3.358154
  H      -3.065520     -0.395245     -4.393866
  H      -3.955782     -1.379825     -3.220436
  H      -2.902659      0.158621     -1.419155
  C      -3.207603      0.456021     -2.431392
  C      -2.303080      1.597181     -2.857412
  O      -1.735887      1.715921     -3.920101
  O      -2.251893      2.535578     -1.887816
  H      -1.565265      3.176842     -2.154257
  N      -4.581688      0.989852     -2.485543
  H      -5.205557      0.281101     -2.108760
  H      -4.642449      1.785818     -1.855022
43
Coordinates from ORCA-job 3_Cu4_Cys3 E -8719.701740219563
  Cu     -1.346499     -2.168622     -0.849924
  S       1.684840     -1.960387      1.964065
  S      -1.605158     -1.779737     -3.052511
  Cu     -0.384640     -2.445200      1.250960
  Cu     -0.174889     -0.401040     -2.209113
  Cu      0.965501     -0.770009      0.205927
  S       0.803741      1.028355     -0.982540
  C       1.943813     -0.776732      3.335938
  H       0.995134     -0.369118      3.686052
  H       2.406275     -1.330721      4.158320
  H       3.589584     -0.012055      2.197456
  C       2.864739      0.360205      2.930917
  C       2.096830      1.502545      2.289163
  O       0.942693      1.790056      2.495027
  O       2.924431      2.239207      1.511516
  H       2.395845      2.952470      1.096994
  N       3.505069      0.945675      4.125766
  H       4.089921      0.230982      4.550206
  H       4.130839      1.690754      3.828377
  C       2.299672      1.713181     -1.768613
  H       3.054134      1.914441     -1.005739
  H       2.708028      1.025582     -2.510649
  H       1.091393      2.780417     -3.172062
  C       1.876909      3.008063     -2.442222
  C       1.278094      3.909707     -1.377254
  O       1.779045      4.188647     -0.313204
  O       0.092235      4.454074     -1.764371
  H      -0.192831      4.996609     -1.005937
  N       3.036186      3.701056     -3.016165
  H       3.596393      3.018410     -3.517988
  H       2.725503      4.381293     -3.704133
  C      -3.080820     -0.738680     -3.358141
  H      -3.066611     -0.394121     -4.393654
  H      -3.955799     -1.379445     -3.220010
  H      -2.900771      0.157720     -1.418837
  C      -3.206792      0.455811     -2.430566
  C      -2.302853      1.597464     -2.856670
  O      -1.735383      1.716464     -3.919191
  O      -2.252479      2.536075     -1.887088
  H      -1.566335      3.177836     -2.153519
  N      -4.581070      0.989413     -2.482952
  H      -5.204518      0.280259     -2.106207
  H      -4.641415      1.784881     -1.851787
