43
Coordinates from ORCA-job 3_Cu4_Cys3 E -8719.701740219563
  Cu         -1.34649944107663     -2.16862229145749     -0.84992374774869
  S           1.68483984892141     -1.96038743723277      1.96406515167471
  S          -1.60515791488767     -1.77973686730672     -3.05251073808313
  Cu         -0.38464029723111     -2.44520047694888      1.25095961635480
  Cu         -0.17488920538144     -0.40104017335637     -2.20911260777991
  Cu          0.96550084007490     -0.77000890886536      0.20592681089835
  S           0.80374065741891      1.02835475259448     -0.98254021761468
  C           1.94381284570851     -0.77673158389427      3.33593756548289
  H           0.99513440399008     -0.36911757402323      3.68605248496736
  H           2.40627452487952     -1.33072098934060      4.15831962694143
  H           3.58958392719992     -0.01205527401058      2.19745568405145
  C           2.86473943570983      0.36020544343452      2.93091664734643
  C           2.09683031814903      1.50254471961728      2.28916326190066
  O           0.94269326333406      1.79005559567096      2.49502706112225
  O           2.92443057785263      2.23920688837033      1.51151598283881
  H           2.39584518908767      2.95247042800132      1.09699415270846
  N           3.50506930321324      0.94567497553081      4.12576613825902
  H           4.08992084334467      0.23098178166562      4.55020607487477
  H           4.13083937004122      1.69075423486049      3.82837679781388
  C           2.29967155741765      1.71318063421072     -1.76861269531610
  H           3.05413369709986      1.91444059538113     -1.00573874450855
  H           2.70802847789331      1.02558226896919     -2.51064865608453
  H           1.09139307214161      2.78041664171142     -3.17206153002925
  C           1.87690901064250      3.00806260143446     -2.44222207459216
  C           1.27809379305823      3.90970726450032     -1.37725376061120
  O           1.77904452446097      4.18864685386962     -0.31320440313326
  O           0.09223531448428      4.45407434430565     -1.76437105389714
  H          -0.19283078860985      4.99660881786898     -1.00593714890761
  N           3.03618565814045      3.70105603884538     -3.01616499262965
  H           3.59639324518424      3.01840961541232     -3.51798837969040
  H           2.72550258165380      4.38129302857319     -3.70413261539213
  C          -3.08081958417745     -0.73867977618937     -3.35814067875053
  H          -3.06661094331204     -0.39412086076216     -4.39365429784042
  H          -3.95579935450997     -1.37944488797073     -3.22000988134064
  H          -2.90077064178298      0.15771981819520     -1.41883660389400
  C          -3.20679153146490      0.45581064336871     -2.43056558191848
  C          -2.30285268103776      1.59746405689464     -2.85667017303202
  O          -1.73538349270709      1.71646360138454     -3.91919081570410
  O          -2.25247868091591      2.53607473306842     -1.88708758263861
  H          -1.56633514529193      3.17783611492100     -2.15351896207394
  N          -4.58106996503850      0.98941301919729     -2.48295240037207
  H          -5.20451848069133      0.28025875744675     -2.10620740698608
  H          -4.64141457598586      1.78488133005373     -1.85178673366584
