14
Coordinates from ORCA-job 2_d-cys E -721.548622438577
  S       2.190409      0.267544     -0.000124
  O      -0.839080      1.712486     -0.700684
  O      -1.806254      0.744737      0.988831
  N      -1.320661     -1.893580     -0.260978
  C      -0.411144     -0.723066     -0.453845
  C       0.898747     -0.986317      0.314633
  C      -1.017691      0.564266     -0.052766
  H      -0.190255     -0.680354     -1.528261
  H       0.726225     -1.031530      1.395981
  H       1.316560     -1.951852      0.007394
  H      -2.180914     -1.713079     -0.782524
  H      -1.643235     -1.829045      0.715441
  H       1.884759      1.061854      1.038887
  H      -1.371870      2.331292     -0.171401
14
Coordinates from ORCA-job 2_d-cys E -721.563368089209
  S       2.200566      0.264225      0.020319
  O      -0.833685      1.682043     -0.725980
  O      -1.775209      0.668262      1.013518
  N      -1.316911     -1.876141     -0.253644
  C      -0.419102     -0.715726     -0.448993
  C       0.891245     -0.980348      0.312300
  C      -1.039873      0.567598     -0.013001
  H      -0.197906     -0.652743     -1.525755
  H       0.709227     -1.041625      1.392678
  H       1.296934     -1.945159     -0.014893
  H      -2.179076     -1.703168     -0.784198
  H      -1.631810     -1.838641      0.725573
  H       1.874689      1.083102      1.042087
  H      -1.343493      2.361678     -0.229429
14
Coordinates from ORCA-job 2_d-cys E -721.568625843534
  S       2.206576      0.257358      0.049848
  O      -0.835560      1.646710     -0.743232
  O      -1.723153      0.640442      1.056970
  N      -1.308576     -1.870864     -0.252581
  C      -0.433765     -0.709084     -0.442236
  C       0.880781     -0.975952      0.309330
  C      -1.072648      0.579498      0.044938
  H      -0.212423     -0.617077     -1.516954
  H       0.688190     -1.061248      1.387338
  H       1.278510     -1.935878     -0.043957
  H      -2.166877     -1.723048     -0.794318
  H      -1.617964     -1.874256      0.726018
  H       1.841347      1.111795      1.034991
  H      -1.288843      2.404961     -0.305571
14
Coordinates from ORCA-job 2_d-cys E -721.569679730788
  S       2.226535      0.222920      0.084028
  O      -0.836962      1.644278     -0.734774
  O      -1.705157      0.649869      1.103930
  N      -1.307027     -1.866416     -0.264408
  C      -0.423383     -0.707711     -0.435232
  C       0.884321     -0.994527      0.322442
  C      -1.055036      0.583870      0.073224
  H      -0.195094     -0.599888     -1.506103
  H       0.682884     -1.089495      1.398138
  H       1.275209     -1.954820     -0.037679
  H      -2.156005     -1.718698     -0.819750
  H      -1.627381     -1.882614      0.710566
  H       1.749460      1.172127      0.923154
  H      -1.276767      2.414459     -0.306953
14
Coordinates from ORCA-job 2_d-cys E -721.569910181602
  S       2.227975      0.210937      0.111652
  O      -0.840796      1.635619     -0.731456
  O      -1.662916      0.664314      1.145356
  N      -1.307796     -1.866691     -0.272415
  C      -0.421346     -0.709698     -0.431260
  C       0.881782     -1.001490      0.332856
  C      -1.052812      0.582992      0.089496
  H      -0.188276     -0.588438     -1.498340
  H       0.672582     -1.109940      1.406230
  H       1.278131     -1.956543     -0.035918
  H      -2.146909     -1.727836     -0.843803
  H      -1.639076     -1.892518      0.698146
  H       1.686253      1.208547      0.849464
  H      -1.251199      2.424101     -0.309424
14
Coordinates from ORCA-job 2_d-cys E -721.570007002701
  S       2.235882      0.197712      0.127250
  O      -0.875100      1.624759     -0.745733
  O      -1.630390      0.678900      1.169818
  N      -1.310174     -1.857480     -0.274845
  C      -0.416096     -0.706579     -0.426575
  C       0.884198     -1.007239      0.338037
  C      -1.037887      0.588590      0.106059
  H      -0.183042     -0.574625     -1.491579
  H       0.671660     -1.130059      1.409439
  H       1.282460     -1.957241     -0.042421
  H      -2.141235     -1.722311     -0.857606
  H      -1.648112     -1.888853      0.692651
  H       1.685607      1.206091      0.844116
  H      -1.282173      2.421691     -0.338027
14
Coordinates from ORCA-job 2_d-cys E -721.570081305493
  S       2.230494      0.202918      0.126764
  O      -0.897108      1.617949     -0.761042
  O      -1.596866      0.692257      1.181764
  N      -1.313443     -1.854504     -0.273510
  C      -0.415839     -0.707485     -0.427146
  C       0.884138     -1.007458      0.336734
  C      -1.033870      0.589344      0.103124
  H      -0.185002     -0.575380     -1.492614
  H       0.671616     -1.136881      1.407186
  H       1.288235     -1.953390     -0.048346
  H      -2.141052     -1.722432     -0.861420
  H      -1.654115     -1.883277      0.692866
  H       1.696885      1.194551      0.878884
  H      -1.298478      2.417144     -0.352658
14
Coordinates from ORCA-job 2_d-cys E -721.570177667467
  S       2.220570      0.212763      0.136816
  O      -0.952027      1.600787     -0.797174
  O      -1.512760      0.722235      1.206949
  N      -1.321449     -1.843083     -0.270844
  C      -0.411214     -0.707665     -0.427281
  C       0.886673     -1.013420      0.334166
  C      -1.017032      0.594198      0.098860
  H      -0.184331     -0.576799     -1.494002
  H       0.672706     -1.160536      1.401558
  H       1.301833     -1.949541     -0.063753
  H      -2.142220     -1.711805     -0.867834
  H      -1.667048     -1.866107      0.693587
  H       1.709187      1.170387      0.946807
  H      -1.347292      2.401942     -0.387273
14
Coordinates from ORCA-job 2_d-cys E -721.570261902763
  S       2.213563      0.218966      0.156715
  O      -1.008756      1.581896     -0.829886
  O      -1.423462      0.753042      1.229436
  N      -1.329147     -1.828671     -0.269257
  C      -0.402968     -0.706490     -0.427243
  C       0.891137     -1.023780      0.332249
  C      -0.995414      0.601401      0.096415
  H      -0.178164     -0.578660     -1.494966
  H       0.674006     -1.189137      1.396089
  H       1.315089     -1.950108     -0.079054
  H      -2.144343     -1.693343     -0.872647
  H      -1.678228     -1.846302      0.693833
  H       1.702874      1.150500      0.997314
  H      -1.400591      2.384043     -0.418411
14
Coordinates from ORCA-job 2_d-cys E -721.570407721248
  S       2.208752      0.222138      0.191277
  O      -1.098313      1.550203     -0.871320
  O      -1.289076      0.801381      1.252793
  N      -1.339252     -1.803662     -0.268744
  C      -0.386788     -0.702417     -0.428292
  C       0.899468     -1.041558      0.329864
  C      -0.960713      0.614931      0.091607
  H      -0.162813     -0.582645     -1.497335
  H       0.676201     -1.229151      1.388619
  H       1.331977     -1.956068     -0.097684
  H      -2.148121     -1.657031     -0.877905
  H      -1.691445     -1.813257      0.693196
  H       1.686170      1.119086      1.061672
  H      -1.490452      2.351405     -0.457163
14
Coordinates from ORCA-job 2_d-cys E -721.570520157670
  S       2.216498      0.211833      0.225446
  O      -1.196415      1.512318     -0.900665
  O      -1.160406      0.853997      1.265472
  N      -1.346477     -1.774782     -0.273691
  C      -0.366840     -0.694167     -0.429900
  C       0.908088     -1.059017      0.331104
  C      -0.927697      0.631282      0.086922
  H      -0.139311     -0.583607     -1.499217
  H       0.677102     -1.258543      1.386061
  H       1.340654     -1.968597     -0.105308
  H      -2.149254     -1.612658     -0.887076
  H      -1.702225     -1.779259      0.686935
  H       1.679067      1.085132      1.110240
  H      -1.597187      2.309425     -0.485738
14
Coordinates from ORCA-job 2_d-cys E -721.570600866862
  S       2.239946      0.185629      0.239197
  O      -1.253628      1.489450     -0.905729
  O      -1.111514      0.879704      1.273324
  N      -1.345829     -1.757183     -0.286262
  C      -0.352773     -0.684048     -0.428669
  C       0.911950     -1.067274      0.339106
  C      -0.916973      0.640705      0.090412
  H      -0.116138     -0.574782     -1.496019
  H       0.676166     -1.258598      1.394601
  H       1.330910     -1.984866     -0.092787
  H      -2.144927     -1.580540     -0.900685
  H      -1.705914     -1.767141      0.672788
  H       1.692958      1.072279      1.103816
  H      -1.668637      2.280022     -0.492509
14
Coordinates from ORCA-job 2_d-cys E -721.570677928876
  S       2.266849      0.149990      0.258520
  O      -1.352976      1.441565     -0.907668
  O      -1.009216      0.937756      1.275506
  N      -1.346949     -1.730702     -0.305436
  C      -0.333769     -0.671473     -0.427859
  C       0.913700     -1.076458      0.352396
  C      -0.898493      0.653286      0.091469
  H      -0.083408     -0.560584     -1.491525
  H       0.669057     -1.260383      1.407064
  H       1.318722     -2.002379     -0.075277
  H      -2.135801     -1.538803     -0.928164
  H      -1.717774     -1.746793      0.649259
  H       1.722442      1.049412      1.111071
  H      -1.776787      2.228922     -0.498772
14
Coordinates from ORCA-job 2_d-cys E -721.570713297083
  S       2.287796      0.121672      0.255041
  O      -1.367559      1.434798     -0.898188
  O      -1.015976      0.941155      1.283874
  N      -1.341088     -1.729462     -0.321666
  C      -0.330259     -0.664809     -0.423578
  C       0.910505     -1.074720      0.364345
  C      -0.906949      0.650930      0.101617
  H      -0.068990     -0.542352     -1.483386
  H       0.664363     -1.242095      1.421304
  H       1.298922     -2.012803     -0.053037
  H      -2.129143     -1.526657     -0.941899
  H      -1.715221     -1.761338      0.631416
  H       1.745195      1.057677      1.068374
  H      -1.795999      2.221360     -0.493631
14
Coordinates from ORCA-job 2_d-cys E -721.570727810899
  S       2.287388      0.119835      0.257229
  O      -1.389071      1.423686     -0.899517
  O      -0.987386      0.956454      1.278349
  N      -1.342370     -1.725684     -0.325155
  C      -0.327908     -0.663983     -0.423965
  C       0.910072     -1.075988      0.366099
  C      -0.901930      0.652709      0.097764
  H      -0.064702     -0.540514     -1.483345
  H       0.661601     -1.242894      1.422477
  H       1.298781     -2.014523     -0.050339
  H      -2.129348     -1.518311     -0.945295
  H      -1.717155     -1.759014      0.627633
  H       1.752880      1.051124      1.081574
  H      -1.815256      2.210458     -0.492925
14
Coordinates from ORCA-job 2_d-cys E -721.570731525645
  S       2.285569      0.120510      0.255966
  O      -1.389323      1.423706     -0.899990
  O      -0.985260      0.956510      1.277517
  N      -1.342226     -1.727224     -0.326837
  C      -0.328697     -0.664551     -0.423864
  C       0.909303     -1.075738      0.366598
  C      -0.901909      0.652102      0.097076
  H      -0.064741     -0.539032     -1.482998
  H       0.659954     -1.241353      1.423005
  H       1.298226     -2.014861     -0.048309
  H      -2.130708     -1.516764     -0.944188
  H      -1.715327     -1.763170      0.626609
  H       1.754148      1.052295      1.081945
  H      -1.813411      2.210925     -0.491944
14
Coordinates from ORCA-job 2_d-cys E -721.570732494136
  S       2.285949      0.118966      0.255734
  O      -1.390659      1.423002     -0.899800
  O      -0.984241      0.956881      1.277857
  N      -1.341837     -1.727538     -0.328842
  C      -0.328548     -0.664442     -0.423747
  C       0.908914     -1.075883      0.367497
  C      -0.901785      0.652126      0.097451
  H      -0.063395     -0.537384     -1.482459
  H       0.658612     -1.239960      1.423964
  H       1.297045     -2.015966     -0.045923
  H      -2.131388     -1.514206     -0.943962
  H      -1.713763     -1.765881      0.625043
  H       1.755064      1.053458      1.079022
  H      -1.814372      2.210183     -0.491250
