14
Coordinates from ORCA-job 3_d-cys E -721.546667927914
  S       2.213970      0.333248      0.080708
  O      -0.731660      1.771187     -0.458219
  O      -2.178938      0.605549      0.668075
  N      -1.186896     -1.930520     -0.303645
  C      -0.353822     -0.692978     -0.412260
  C       0.885266     -0.853490      0.489296
  C      -1.085235      0.549590     -0.068545
  H      -0.039713     -0.631092     -1.462033
  H       0.622457     -0.722389      1.545059
  H       1.316946     -1.854307      0.376128
  H      -2.004187     -1.795832     -0.905999
  H      -1.623145     -1.880745      0.628932
  H       2.639496     -0.290475     -1.029470
  H      -1.419576      2.323893     -0.048235
14
Coordinates from ORCA-job 3_d-cys E -721.561778519285
  S       2.224134      0.340047      0.119170
  O      -0.715314      1.741133     -0.492831
  O      -2.153998      0.534411      0.692244
  N      -1.192528     -1.914785     -0.292863
  C      -0.369767     -0.689597     -0.409532
  C       0.881318     -0.849285      0.479076
  C      -1.122863      0.547726     -0.043972
  H      -0.057720     -0.612422     -1.462561
  H       0.619721     -0.733285      1.539259
  H       1.293932     -1.855407      0.344736
  H      -2.010423     -1.792451     -0.903197
  H      -1.615811     -1.890082      0.645764
  H       2.644510     -0.255027     -1.016915
  H      -1.370230      2.360663     -0.098585
14
Coordinates from ORCA-job 3_d-cys E -721.567322425335
  S       2.229299      0.339192      0.173856
  O      -0.712034      1.702343     -0.538948
  O      -2.120177      0.517863      0.742903
  N      -1.187785     -1.910792     -0.286099
  C      -0.393253     -0.685524     -0.402710
  C       0.872695     -0.850231      0.466551
  C      -1.173754      0.556859      0.000290
  H      -0.082822     -0.582417     -1.454946
  H       0.615063     -0.759958      1.532060
  H       1.261068     -1.861610      0.298818
  H      -2.001112     -1.819727     -0.904354
  H      -1.595819     -1.930469      0.655697
  H       2.637817     -0.197250     -1.001544
  H      -1.294224      2.413362     -0.181780
14
Coordinates from ORCA-job 3_d-cys E -721.568324465900
  S       2.235723      0.322981      0.204094
  O      -0.720481      1.692732     -0.573676
  O      -2.104429      0.538712      0.793522
  N      -1.187698     -1.910859     -0.288980
  C      -0.389138     -0.687361     -0.399745
  C       0.873740     -0.863370      0.472407
  C      -1.167928      0.560696      0.012096
  H      -0.075745     -0.577250     -1.449583
  H       0.611945     -0.782641      1.537815
  H       1.256167     -1.875941      0.297088
  H      -1.994007     -1.827098     -0.916841
  H      -1.599388     -1.939275      0.651057
  H       2.596661     -0.142977     -1.015454
  H      -1.280459      2.423293     -0.224007
14
Coordinates from ORCA-job 3_d-cys E -721.568850085789
  S       2.232744      0.308051      0.253663
  O      -0.740736      1.669600     -0.632552
  O      -2.040949      0.574261      0.870188
  N      -1.193757     -1.909012     -0.291371
  C      -0.386022     -0.692708     -0.396542
  C       0.873059     -0.885212      0.477416
  C      -1.154725      0.564368      0.026848
  H      -0.071741     -0.573009     -1.443837
  H       0.605390     -0.826205      1.543029
  H       1.251471     -1.896329      0.283165
  H      -1.990380     -1.833507     -0.931174
  H      -1.607782     -1.947363      0.646518
  H       2.541221     -0.051110     -1.015037
  H      -1.262828      2.429816     -0.290523
14
Coordinates from ORCA-job 3_d-cys E -721.569301018126
  S       2.218462      0.299695      0.312384
  O      -0.785489      1.639118     -0.708078
  O      -1.937993      0.621020      0.959408
  N      -1.207975     -1.900501     -0.292816
  C      -0.380885     -0.698381     -0.392970
  C       0.874412     -0.915307      0.478004
  C      -1.123717      0.570759      0.046660
  H      -0.070295     -0.569010     -1.439173
  H       0.600940     -0.892425      1.543762
  H       1.255236     -1.919393      0.251524
  H      -1.995981     -1.826106     -0.941883
  H      -1.621326     -1.945735      0.644176
  H       2.503153      0.043640     -0.986281
  H      -1.273578      2.424264     -0.374926
14
Coordinates from ORCA-job 3_d-cys E -721.569741919359
  S       2.187565      0.307311      0.365570
  O      -0.828539      1.608806     -0.773607
  O      -1.813911      0.668485      1.033479
  N      -1.226135     -1.893775     -0.291884
  C      -0.376952     -0.708418     -0.393544
  C       0.873180     -0.943179      0.475770
  C      -1.092128      0.573336      0.050601
  H      -0.069760     -0.578650     -1.440113
  H       0.590770     -0.956744      1.539486
  H       1.268318     -1.935017      0.219971
  H      -2.007408     -1.817954     -0.947960
  H      -1.639082     -1.936021      0.644839
  H       2.471659      0.131715     -0.946554
  H      -1.282614      2.411746     -0.436262
14
Coordinates from ORCA-job 3_d-cys E -721.570239143943
  S       2.158970      0.312413      0.417426
  O      -0.884276      1.579369     -0.834409
  O      -1.685216      0.709473      1.086602
  N      -1.246774     -1.879244     -0.289688
  C      -0.367708     -0.716109     -0.392985
  C       0.876000     -0.974131      0.472914
  C      -1.047514      0.579488      0.054465
  H      -0.064053     -0.591129     -1.441314
  H       0.583266     -1.024774      1.532750
  H       1.288081     -1.951013      0.188039
  H      -2.023476     -1.791868     -0.949375
  H      -1.658898     -1.912723      0.647456
  H       2.451007      0.204264     -0.900580
  H      -1.324446      2.387623     -0.491508
14
Coordinates from ORCA-job 3_d-cys E -721.570642206995
  S       2.129573      0.319408      0.464807
  O      -0.941759      1.550298     -0.887572
  O      -1.552379      0.746604      1.128938
  N      -1.267478     -1.863067     -0.287815
  C      -0.356806     -0.723737     -0.393531
  C       0.879291     -1.003130      0.470399
  C      -1.005844      0.585619      0.051560
  H      -0.053950     -0.611325     -1.444247
  H       0.574708     -1.087885      1.524719
  H       1.313927     -1.962227      0.161450
  H      -2.039537     -1.759237     -0.950854
  H      -1.681885     -1.881353      0.648738
  H       2.431807      0.264110     -0.854671
  H      -1.374703      2.357560     -0.532131
14
Coordinates from ORCA-job 3_d-cys E -721.570822388743
  S       2.111261      0.317432      0.510846
  O      -1.013020      1.516454     -0.933192
  O      -1.424236      0.789266      1.166408
  N      -1.285448     -1.843343     -0.286936
  C      -0.344641     -0.727036     -0.393854
  C       0.884306     -1.028989      0.468073
  C      -0.969338      0.595064      0.051374
  H      -0.040702     -0.627146     -1.445790
  H       0.571289     -1.148284      1.516479
  H       1.338532     -1.969911      0.134074
  H      -2.050631     -1.724442     -0.955530
  H      -1.705269     -1.845535      0.647545
  H       2.424270      0.303674     -0.807430
  H      -1.441410      2.324435     -0.572275
14
Coordinates from ORCA-job 3_d-cys E -721.570880811824
  S       2.122911      0.317577      0.500339
  O      -1.034203      1.518122     -0.932342
  O      -1.433671      0.783276      1.170614
  N      -1.284359     -1.836431     -0.291671
  C      -0.340696     -0.719712     -0.391306
  C       0.887151     -1.024481      0.471002
  C      -0.975397      0.598353      0.054770
  H      -0.032527     -0.622432     -1.442580
  H       0.576913     -1.142159      1.520131
  H       1.343874     -1.963934      0.137712
  H      -2.047576     -1.708491     -0.961456
  H      -1.710661     -1.835469      0.640267
  H       2.465795      0.253677     -0.809020
  H      -1.482593      2.313743     -0.566668
14
Coordinates from ORCA-job 3_d-cys E -721.570921169514
  S       2.135968      0.303785      0.507460
  O      -1.063248      1.506008     -0.939469
  O      -1.407407      0.800791      1.186519
  N      -1.284099     -1.829578     -0.295952
  C      -0.335733     -0.714936     -0.389376
  C       0.888753     -1.027681      0.474421
  C      -0.973734      0.602476      0.061398
  H      -0.023530     -0.615169     -1.438558
  H       0.580245     -1.150804      1.523226
  H       1.342753     -1.966280      0.134753
  H      -2.042833     -1.698939     -0.970249
  H      -1.716035     -1.829306      0.633415
  H       2.467542      0.246764     -0.804748
  H      -1.513677      2.304510     -0.583047
14
Coordinates from ORCA-job 3_d-cys E -721.570934175962
  S       2.139275      0.300425      0.506431
  O      -1.077262      1.501261     -0.940834
  O      -1.393382      0.806107      1.191656
  N      -1.283725     -1.826133     -0.299905
  C      -0.332264     -0.712656     -0.388497
  C       0.888619     -1.028474      0.477235
  C      -0.971118      0.603284      0.063359
  H      -0.017510     -0.611238     -1.436591
  H       0.579800     -1.149739      1.526009
  H       1.342046     -1.967751      0.138487
  H      -2.040619     -1.691468     -0.975582
  H      -1.718241     -1.826601      0.628281
  H       2.470724      0.236861     -0.805376
  H      -1.531381      2.297762     -0.584878
14
Coordinates from ORCA-job 3_d-cys E -721.570949868880
  S       2.148110      0.292701      0.502856
  O      -1.111607      1.489970     -0.943125
  O      -1.362696      0.817500      1.203133
  N      -1.282201     -1.817831     -0.310239
  C      -0.325011     -0.706602     -0.386758
  C       0.888678     -1.029273      0.483341
  C      -0.966220      0.605513      0.068042
  H      -0.005343     -0.599599     -1.432685
  H       0.578874     -1.143150      1.532401
  H       1.338017     -1.972202      0.149069
  H      -2.035716     -1.673987     -0.987864
  H      -1.720874     -1.822844      0.615973
  H       2.484244      0.209346     -0.806517
  H      -1.573293      2.282097     -0.587834
14
Coordinates from ORCA-job 3_d-cys E -721.570955098530
  S       2.154007      0.287457      0.502049
  O      -1.134148      1.482354     -0.945291
  O      -1.342566      0.825452      1.210206
  N      -1.281490     -1.812368     -0.316536
  C      -0.321033     -0.702893     -0.386081
  C       0.889235     -1.029971      0.486275
  C      -0.963351      0.607596      0.070449
  H       0.001046     -0.592671     -1.430968
  H       0.578210     -1.139021      1.535421
  H       1.334892     -1.975732      0.155202
  H      -2.033440     -1.663327     -0.994770
  H      -1.721684     -1.821095      0.608931
  H       2.494631      0.193683     -0.805473
  H      -1.599346      2.272175     -0.589624
14
Coordinates from ORCA-job 3_d-cys E -721.570959978218
  S       2.162888      0.279578      0.501240
  O      -1.163504      1.472656     -0.947894
  O      -1.317994      0.836082      1.218674
  N      -1.280168     -1.805231     -0.324739
  C      -0.316315     -0.697821     -0.385560
  C       0.890245     -1.030414      0.489430
  C      -0.960463      0.610890      0.073196
  H       0.008647     -0.583452     -1.429216
  H       0.577143     -1.132103      1.538706
  H       1.329360     -1.980915      0.163461
  H      -2.030756     -1.650102     -1.003050
  H      -1.721349     -1.820253      0.600158
  H       2.510093      0.173304     -0.803658
  H      -1.632863      2.259419     -0.590956
14
Coordinates from ORCA-job 3_d-cys E -721.570961257157
  S       2.166178      0.276438      0.501338
  O      -1.172394      1.470014     -0.948859
  O      -1.311335      0.839606      1.220919
  N      -1.279536     -1.803096     -0.327149
  C      -0.315144     -0.696178     -0.385640
  C       0.890670     -1.030285      0.489930
  C      -0.960041      0.612236      0.073765
  H       0.010624     -0.580716     -1.428978
  H       0.576560     -1.129323      1.539221
  H       1.326791     -1.982818      0.165928
  H      -2.030238     -1.646529     -1.004954
  H      -1.720308     -1.821053      0.597863
  H       2.515813      0.167552     -0.802735
  H      -1.642677      2.255790     -0.590857
14
Coordinates from ORCA-job 3_d-cys E -721.570961548832
  S       2.166501      0.275864      0.501682
  O      -1.172505      1.470297     -0.949149
  O      -1.311611      0.839902      1.220690
  N      -1.279410     -1.803056     -0.327085
  C      -0.315258     -0.696112     -0.385850
  C       0.890731     -1.030118      0.489606
  C      -0.960222      0.612497      0.073503
  H       0.010548     -0.580908     -1.429216
  H       0.576282     -1.129010      1.538855
  H       1.326209     -1.983038      0.165832
  H      -2.030554     -1.646714     -1.004436
  H      -1.719614     -1.821765      0.598170
  H       2.516563      0.167943     -0.802362
  H      -1.642697      2.255858     -0.590448
