14
Coordinates from ORCA-job 3_d-cys
  S   2.16650067699495      0.27586385877747      0.50168176274226
  O   -1.17250481886417      1.47029715511707     -0.94914923365921
  O   -1.31161051982047      0.83990157083425      1.22068980305539
  N   -1.27941033137558     -1.80305612293895     -0.32708475037915
  C   -0.31525797091776     -0.69611201558736     -0.38584975592606
  C   0.89073118712335     -1.03011798734268      0.48960626320922
  C   -0.96022221853229      0.61249679408620      0.07350285934908
  H   0.01054753186807     -0.58090794415528     -1.42921557749518
  H   0.57628215668916     -1.12901046661202      1.53885532246462
  H   1.32620932711967     -1.98303754463680      0.16583180469820
  H   -2.03055416456946     -1.64671361606600     -1.00443643108753
  H   -1.71961379336447     -1.82176540520336      0.59817015971779
  H   2.51656323549867      0.16794309741315     -0.80236182232212
  H   -1.64269729784967      2.25585762631431     -0.59044840436730
