14
Coordinates from ORCA-job 4_d-cys
  S   2.40053470381962     -0.10531780606892      0.18943290277320
  O   -1.26355943662354      1.44866871618729     -0.77182981645936
  O   -0.78060943478358      0.86610994473391      1.36152813141972
  N   -1.34188984458957     -1.71329124104428     -0.37462058273243
  C   -0.27475990366659     -0.70134855043565     -0.44061588930567
  C   0.95789529800103     -1.22040409530826      0.29219120389449
  C   -0.76419920091438      0.61280048431350      0.16629683904499
  H   -0.02996019786630     -0.53016681654426     -1.49802763269480
  H   0.72896838013856     -1.41884408055801      1.34759384367613
  H   1.27637820471226     -2.16099729698044     -0.17587771401176
  H   -2.13798911421028     -1.41813416538132     -0.94587888016732
  H   -1.68388127490492     -1.79088470556252      0.58807631020987
  H   1.94400554378581      0.82926502779948      1.05616327319454
  H   -1.63348772289811      2.23246058484946     -0.30831098884161
