14
Coordinates from ORCA-job 4_d-cys E -721.545321355208
  S       2.185829      0.331584     -0.010906
  O      -0.779719      1.761843     -0.528709
  O      -2.051629      0.638835      0.832874
  N      -1.250485     -1.914899     -0.301396
  C      -0.393310     -0.697217     -0.449576
  C       0.893959     -0.902780      0.370463
  C      -1.073157      0.556190     -0.049550
  H      -0.139306     -0.630160     -1.515222
  H       0.690246     -0.861619      1.446482
  H       1.327387     -1.885660      0.153397
  H      -2.087426     -1.768874     -0.871642
  H      -1.642068     -1.851266      0.650273
  H       3.121132     -0.177509      0.806572
  H      -1.404007      2.331448     -0.046939
14
Coordinates from ORCA-job 4_d-cys E -721.560875124459
  S       2.152014      0.366683     -0.000726
  O      -0.745868      1.727642     -0.551864
  O      -2.022289      0.571400      0.852539
  N      -1.246334     -1.902162     -0.293691
  C      -0.403456     -0.696188     -0.440002
  C       0.881956     -0.902869      0.371840
  C      -1.099002      0.554151     -0.013841
  H      -0.146090     -0.607682     -1.508098
  H       0.667381     -0.882634      1.449033
  H       1.306020     -1.882631      0.123602
  H      -2.081980     -1.763734     -0.875126
  H      -1.629975     -1.868728      0.661396
  H       3.100734     -0.152274      0.805808
  H      -1.335664      2.368942     -0.094749
14
Coordinates from ORCA-job 4_d-cys E -721.566435435082
  S       2.119604      0.407236      0.035485
  O      -0.736490      1.686914     -0.583686
  O      -1.991313      0.552425      0.892422
  N      -1.238297     -1.897677     -0.291741
  C      -0.420044     -0.691235     -0.424597
  C       0.873765     -0.902626      0.375127
  C      -1.141913      0.564123      0.042194
  H      -0.161086     -0.569611     -1.489936
  H       0.650514     -0.921747      1.451554
  H       1.289052     -1.872777      0.078687
  H      -2.068196     -1.783937     -0.883934
  H      -1.612902     -1.916197      0.663959
  H       3.091220     -0.145444      0.800134
  H      -1.256467      2.420470     -0.179549
14
Coordinates from ORCA-job 4_d-cys E -721.567385543648
  S       2.108909      0.423693      0.075051
  O      -0.754391      1.681355     -0.609341
  O      -1.985174      0.571331      0.934325
  N      -1.237431     -1.897391     -0.293220
  C      -0.419354     -0.689486     -0.422158
  C       0.874186     -0.903456      0.380016
  C      -1.144276      0.569115      0.051832
  H      -0.158979     -0.561141     -1.485191
  H       0.644989     -0.946040      1.454315
  H       1.298701     -1.863922      0.065503
  H      -2.062534     -1.793785     -0.893085
  H      -1.614047     -1.925821      0.661411
  H       3.101786     -0.166346      0.781471
  H      -1.254938      2.431811     -0.214811
14
Coordinates from ORCA-job 4_d-cys E -721.567706224688
  S       2.084857      0.448004      0.126651
  O      -0.774502      1.667455     -0.641625
  O      -1.946754      0.597231      0.981023
  N      -1.241270     -1.895902     -0.292754
  C      -0.420862     -0.690680     -0.420107
  C       0.872920     -0.908539      0.381642
  C      -1.141644      0.573158      0.063487
  H      -0.162007     -0.553675     -1.480869
  H       0.636769     -0.988099      1.452121
  H       1.312680     -1.852002      0.037966
  H      -2.061240     -1.802888     -0.899852
  H      -1.616495     -1.935403      0.661253
  H       3.100046     -0.169794      0.774449
  H      -1.245053      2.441048     -0.257263
14
Coordinates from ORCA-job 4_d-cys E -721.567876451430
  S       2.062209      0.465193      0.177457
  O      -0.806795      1.652841     -0.681166
  O      -1.884594      0.625893      1.029493
  N      -1.249797     -1.889251     -0.289691
  C      -0.420180     -0.692465     -0.420200
  C       0.874950     -0.920609      0.375738
  C      -1.124475      0.578221      0.075497
  H      -0.167874     -0.549066     -1.480526
  H       0.634126     -1.043625      1.440903
  H       1.331262     -1.843082     -0.001747
  H      -2.066814     -1.801531     -0.900130
  H      -1.619532     -1.934446      0.665423
  H       3.088570     -0.160670      0.798197
  H      -1.253610      2.442513     -0.303126
14
Coordinates from ORCA-job 4_d-cys E -721.567969463227
  S       2.041613      0.474876      0.201964
  O      -0.833265      1.640832     -0.713784
  O      -1.805135      0.650967      1.074913
  N      -1.260715     -1.884875     -0.285635
  C      -0.421566     -0.697542     -0.426158
  C       0.876706     -0.933884      0.360874
  C      -1.108175      0.579654      0.076181
  H      -0.178886     -0.554714     -1.488316
  H       0.634987     -1.088531      1.421655
  H       1.347224     -1.839035     -0.040622
  H      -2.077527     -1.800863     -0.896072
  H      -1.623357     -1.927840      0.671786
  H       3.059559     -0.129198      0.856411
  H      -1.254017      2.440067     -0.327075
14
Coordinates from ORCA-job 4_d-cys E -721.568069210286
  S       2.040676      0.467942      0.209595
  O      -0.873694      1.631444     -0.746118
  O      -1.728840      0.667885      1.111267
  N      -1.270379     -1.873719     -0.282094
  C      -0.417590     -0.697888     -0.430947
  C       0.884104     -0.950251      0.343787
  C      -1.081510      0.585103      0.081744
  H      -0.185938     -0.556727     -1.496001
  H       0.644405     -1.125535      1.401819
  H       1.358325     -1.845421     -0.075584
  H      -2.088707     -1.785782     -0.889644
  H      -1.625529     -1.912321      0.678090
  H       3.029947     -0.105280      0.932109
  H      -1.287823      2.430467     -0.351903
14
Coordinates from ORCA-job 4_d-cys E -721.568163187403
  S       2.051814      0.449904      0.192634
  O      -0.912620      1.624484     -0.770135
  O      -1.653000      0.676981      1.144169
  N      -1.278288     -1.863152     -0.282930
  C      -0.411701     -0.697376     -0.436513
  C       0.891693     -0.966109      0.328135
  C      -1.058328      0.589207      0.084026
  H      -0.188406     -0.560705     -1.504502
  H       0.655468     -1.140867      1.386989
  H       1.360164     -1.862873     -0.094425
  H      -2.097749     -1.766751     -0.887966
  H      -1.629772     -1.895254      0.678937
  H       2.994072     -0.074819      1.009196
  H      -1.325902      2.417245     -0.361495
14
Coordinates from ORCA-job 4_d-cys E -721.568232721946
  S       2.071388      0.424882      0.170233
  O      -0.957246      1.615997     -0.789253
  O      -1.581101      0.684868      1.176962
  N      -1.283660     -1.852149     -0.289786
  C      -0.402714     -0.694731     -0.440041
  C       0.898482     -0.980151      0.320149
  C      -1.038626      0.593336      0.088693
  H      -0.182116     -0.560586     -1.509222
  H       0.664694     -1.140963      1.381565
  H       1.353907     -1.886461     -0.096152
  H      -2.101655     -1.743693     -0.895213
  H      -1.636834     -1.880135      0.671807
  H       2.967198     -0.051609      1.065248
  H      -1.374270      2.401310     -0.368872
14
Coordinates from ORCA-job 4_d-cys E -721.568287766267
  S       2.092564      0.398777      0.147914
  O      -0.998795      1.606254     -0.800787
  O      -1.524790      0.692625      1.204447
  N      -1.286639     -1.842867     -0.300604
  C      -0.393211     -0.691416     -0.441312
  C       0.903072     -0.990263      0.319609
  C      -1.025240      0.596007      0.095319
  H      -0.170295     -0.555770     -1.509748
  H       0.671353     -1.130654      1.384157
  H       1.342457     -1.909495     -0.085331
  H      -2.101683     -1.721362     -0.907885
  H      -1.644208     -1.871245      0.659577
  H       2.953443     -0.037359      1.096110
  H      -1.420583      2.386685     -0.375344
14
Coordinates from ORCA-job 4_d-cys E -721.568368892750
  S       2.126200      0.352865      0.116096
  O      -1.073320      1.583710     -0.816915
  O      -1.422782      0.713615      1.246829
  N      -1.292230     -1.825534     -0.319760
  C      -0.376396     -0.686449     -0.443387
  C       0.910168     -1.008390      0.320192
  C      -1.000640      0.600302      0.106653
  H      -0.148625     -0.545020     -1.509689
  H       0.681868     -1.118162      1.388718
  H       1.323108     -1.947110     -0.067728
  H      -2.102078     -1.681303     -0.929301
  H      -1.655294     -1.857916      0.638409
  H       2.927176     -0.010413      1.143691
  H      -1.499707      2.359722     -0.387687
14
Coordinates from ORCA-job 4_d-cys E -721.568431729526
  S       2.162132      0.302097      0.086713
  O      -1.146276      1.556923     -0.826790
  O      -1.324005      0.739073      1.279148
  N      -1.297946     -1.806014     -0.339156
  C      -0.359162     -0.681395     -0.444907
  C       0.917237     -1.027015      0.321833
  C      -0.975051      0.604832      0.116519
  H      -0.125947     -0.532149     -1.508760
  H       0.692852     -1.108455      1.393333
  H       1.302990     -1.984032     -0.049387
  H      -2.103048     -1.637969     -0.948956
  H      -1.664422     -1.845699      0.617447
  H       2.897662      0.021105      1.186089
  H      -1.579572      2.328612     -0.397007
14
Coordinates from ORCA-job 4_d-cys E -721.568454437890
  S       2.183969      0.271680      0.071878
  O      -1.183174      1.539470     -0.830160
  O      -1.274230      0.757409      1.293097
  N      -1.301208     -1.794630     -0.350095
  C      -0.350945     -0.678328     -0.444499
  C       0.921136     -1.036830      0.322307
  C      -0.962205      0.607220      0.122281
  H      -0.115084     -0.521144     -1.506713
  H       0.699878     -1.106767      1.395023
  H       1.292228     -2.002424     -0.041858
  H      -2.105702     -1.612683     -0.956436
  H      -1.665736     -1.845136      0.606556
  H       2.878182      0.041219      1.209024
  H      -1.619664      2.310860     -0.404283
14
Coordinates from ORCA-job 4_d-cys E -721.568465359921
  S       2.189711      0.263042      0.069776
  O      -1.192913      1.533138     -0.832858
  O      -1.252614      0.767091      1.296530
  N      -1.303284     -1.791146     -0.351405
  C      -0.349884     -0.678232     -0.444975
  C       0.922652     -1.041552      0.318477
  C      -0.956039      0.608457      0.122953
  H      -0.115668     -0.518541     -1.507332
  H       0.702497     -1.114495      1.391199
  H       1.291943     -2.006991     -0.048037
  H      -2.109899     -1.605592     -0.953600
  H      -1.662900     -1.847468      0.606649
  H       2.859558      0.055838      1.225839
  H      -1.625714      2.306368     -0.407094
14
Coordinates from ORCA-job 4_d-cys E -721.568482117899
  S       2.208496      0.235552      0.057566
  O      -1.211503      1.522041     -0.835904
  O      -1.208714      0.782637      1.303001
  N      -1.307400     -1.783446     -0.355932
  C      -0.345952     -0.678047     -0.446473
  C       0.926168     -1.053553      0.310680
  C      -0.941323      0.610998      0.124319
  H      -0.114022     -0.514742     -1.509156
  H       0.709801     -1.125337      1.384194
  H       1.286321     -2.022560     -0.055546
  H      -2.118093     -1.587666     -0.949139
  H      -1.658007     -1.850546      0.604636
  H       2.811599      0.099227      1.259936
  H      -1.639926      2.295358     -0.406061
14
Coordinates from ORCA-job 4_d-cys E -721.568528307802
  S       2.237802      0.189052      0.042441
  O      -1.237388      1.505063     -0.837060
  O      -1.129219      0.805717      1.312370
  N      -1.315387     -1.771674     -0.362251
  C      -0.338468     -0.680301     -0.450435
  C       0.931701     -1.076626      0.297519
  C      -0.913447      0.614070      0.126079
  H      -0.110028     -0.514186     -1.513814
  H       0.720550     -1.147597      1.371950
  H       1.277345     -2.050604     -0.069385
  H      -2.130899     -1.559594     -0.942850
  H      -1.653579     -1.851406      0.601637
  H       2.713880      0.189139      1.307719
  H      -1.655417      2.278865     -0.397800
14
Coordinates from ORCA-job 4_d-cys E -721.568663055908
  S       2.269372      0.141434      0.028241
  O      -1.227180      1.502554     -0.830506
  O      -1.095146      0.808925      1.319286
  N      -1.322453     -1.768098     -0.365288
  C      -0.335461     -0.685875     -0.452941
  C       0.936309     -1.096766      0.284970
  C      -0.894727      0.611785      0.131228
  H      -0.110698     -0.516159     -1.516535
  H       0.734228     -1.169859      1.360742
  H       1.268055     -2.074374     -0.084665
  H      -2.143699     -1.542115     -0.932211
  H      -1.648888     -1.859097      0.601522
  H       2.604005      0.299515      1.328100
  H      -1.636271      2.278045     -0.385821
14
Coordinates from ORCA-job 4_d-cys E -721.568681108366
  S       2.260027      0.152303      0.030607
  O      -1.206058      1.511910     -0.829407
  O      -1.107325      0.798969      1.316439
  N      -1.322942     -1.774511     -0.358062
  C      -0.339748     -0.689785     -0.455374
  C       0.935479     -1.095886      0.279297
  C      -0.896319      0.609341      0.128839
  H      -0.119466     -0.524340     -1.520230
  H       0.734811     -1.176607      1.354946
  H       1.274120     -2.068874     -0.096610
  H      -2.146005     -1.554043     -0.924663
  H      -1.647002     -1.857958      0.610341
  H       2.587131      0.309971      1.332568
  H      -1.609254      2.289425     -0.382572
14
Coordinates from ORCA-job 4_d-cys E -721.568932184445
  S       2.272905      0.122002      0.039943
  O      -1.206750      1.505383     -0.822839
  O      -1.032563      0.805677      1.323224
  N      -1.332001     -1.769517     -0.354095
  C      -0.333640     -0.698985     -0.461267
  C       0.940068     -1.120842      0.265976
  C      -0.865423      0.608023      0.129564
  H      -0.118905     -0.538855     -1.527451
  H       0.742308     -1.216212      1.340753
  H       1.276784     -2.089527     -0.123124
  H      -2.153873     -1.541324     -0.919425
  H      -1.652591     -1.843066      0.616265
  H       2.453619      0.420515      1.345618
  H      -1.592492      2.286644     -0.367022
14
Coordinates from ORCA-job 4_d-cys E -721.568927424781
  S       2.285240      0.095787      0.061884
  O      -1.286637      1.466456     -0.819909
  O      -0.897450      0.850946      1.323771
  N      -1.339504     -1.746360     -0.360764
  C      -0.316012     -0.697988     -0.464687
  C       0.945280     -1.142248      0.268060
  C      -0.828944      0.616720      0.126623
  H      -0.096740     -0.542938     -1.530511
  H       0.738773     -1.241227      1.340553
  H       1.277156     -2.111068     -0.124959
  H      -2.148188     -1.509409     -0.941093
  H      -1.673017     -1.807010      0.605935
  H       2.402479      0.449800      1.360720
  H      -1.664987      2.248454     -0.359501
14
Coordinates from ORCA-job 4_d-cys E -721.569461230419
  S       2.336401      0.035075      0.064387
  O      -1.265173      1.467204     -0.812876
  O      -0.923005      0.850083      1.336163
  N      -1.341078     -1.741980     -0.365632
  C      -0.313979     -0.696486     -0.456245
  C       0.951154     -1.152798      0.267560
  C      -0.828446      0.614505      0.141902
  H      -0.091474     -0.527047     -1.519732
  H       0.753316     -1.265950      1.340438
  H       1.268907     -2.122098     -0.133943
  H      -2.153777     -1.490999     -0.933722
  H      -1.669370     -1.825329      0.600854
  H       2.325030      0.534923      1.319547
  H      -1.651061      2.250813     -0.362581
14
Coordinates from ORCA-job 4_d-cys E -721.569818496773
  S       2.361466      0.003320      0.074237
  O      -1.205913      1.488371     -0.805201
  O      -0.977249      0.825404      1.344768
  N      -1.340346     -1.750969     -0.356414
  C      -0.318922     -0.700548     -0.450772
  C       0.953868     -1.158046      0.261914
  C      -0.834940      0.607481      0.152305
  H      -0.099662     -0.527283     -1.514175
  H       0.764610     -1.297262      1.333699
  H       1.273106     -2.118816     -0.158390
  H      -2.156660     -1.500017     -0.919359
  H      -1.666262     -1.833987      0.610995
  H       2.235182      0.617781      1.271189
  H      -1.590831      2.274486     -0.358675
14
Coordinates from ORCA-job 4_d-cys E -721.570060410505
  S       2.384283     -0.031509      0.084968
  O      -1.148461      1.508993     -0.790839
  O      -1.034587      0.796709      1.352431
  N      -1.337546     -1.759230     -0.349186
  C      -0.320412     -0.703469     -0.443403
  C       0.955674     -1.163679      0.263065
  C      -0.842472      0.600005      0.163440
  H      -0.100526     -0.528180     -1.505974
  H       0.772970     -1.325544      1.333333
  H       1.275158     -2.117094     -0.174548
  H      -2.151722     -1.508768     -0.915970
  H      -1.670922     -1.833309      0.616689
  H       2.152938      0.700673      1.198077
  H      -1.536928      2.294317     -0.345964
14
Coordinates from ORCA-job 4_d-cys E -721.570147252623
  S       2.397684     -0.058239      0.092713
  O      -1.080035      1.534094     -0.768277
  O      -1.104541      0.757472      1.356082
  N      -1.333000     -1.771222     -0.342221
  C      -0.321824     -0.707404     -0.436052
  C       0.955361     -1.167343      0.268835
  C      -0.853038      0.590145      0.173646
  H      -0.099866     -0.532442     -1.497809
  H       0.775865     -1.346328      1.337402
  H       1.276014     -2.114746     -0.182728
  H      -2.141920     -1.524209     -0.918791
  H      -1.679380     -1.828999      0.620614
  H       2.078560      0.782311      1.104482
  H      -1.472434      2.316825     -0.321775
14
Coordinates from ORCA-job 4_d-cys E -721.570194795282
  S       2.382296     -0.040360      0.082691
  O      -1.058194      1.543111     -0.765425
  O      -1.120697      0.744135      1.350821
  N      -1.332438     -1.778589     -0.337106
  C      -0.325521     -0.710984     -0.438809
  C       0.953276     -1.164771      0.266088
  C      -0.855537      0.587341      0.169649
  H      -0.107441     -0.540812     -1.501950
  H       0.773726     -1.340729      1.335113
  H       1.277117     -2.111702     -0.185034
  H      -2.142343     -1.537493     -0.915096
  H      -1.677663     -1.828030      0.626761
  H       2.077049      0.782628      1.113508
  H      -1.446184      2.326172     -0.315091
14
Coordinates from ORCA-job 4_d-cys E -721.570242787582
  S       2.367236     -0.022678      0.079915
  O      -1.031388      1.550879     -0.761639
  O      -1.135066      0.732824      1.346233
  N      -1.333283     -1.785923     -0.330149
  C      -0.329811     -0.715507     -0.440359
  C       0.952288     -1.164034      0.263009
  C      -0.856003      0.584264      0.167001
  H      -0.116911     -0.548664     -1.505045
  H       0.769373     -1.346043      1.330291
  H       1.282013     -2.106274     -0.193757
  H      -2.144205     -1.552438     -0.909838
  H      -1.676470     -1.828534      0.634751
  H       2.060768      0.794781      1.115236
  H      -1.411095      2.337262     -0.309527
14
Coordinates from ORCA-job 4_d-cys E -721.570303539434
  S       2.358137     -0.014845      0.083839
  O      -1.021464      1.551348     -0.759246
  O      -1.128360      0.730513      1.347040
  N      -1.334860     -1.787377     -0.327388
  C      -0.330530     -0.718454     -0.440165
  C       0.952828     -1.167371      0.263185
  C      -0.851057      0.582763      0.167152
  H      -0.120640     -0.551565     -1.505570
  H       0.762102     -1.357280      1.327625
  H       1.286373     -2.105187     -0.199685
  H      -2.144803     -1.558127     -0.909762
  H      -1.677340     -1.828138      0.637666
  H       2.040348      0.812296      1.108253
  H      -1.393289      2.341342     -0.306823
14
Coordinates from ORCA-job 4_d-cys E -721.570384986452
  S       2.358847     -0.022857      0.097064
  O      -1.042338      1.541444     -0.760303
  O      -1.085642      0.741836      1.355434
  N      -1.337061     -1.779341     -0.331813
  C      -0.324821     -0.718383     -0.438467
  C       0.954896     -1.176259      0.268125
  C      -0.837516      0.584578      0.170161
  H      -0.113305     -0.548012     -1.503197
  H       0.751662     -1.372740      1.329078
  H       1.288473     -2.111944     -0.198712
  H      -2.143404     -1.547450     -0.917562
  H      -1.680926     -1.825151      0.632247
  H       2.018178      0.830891      1.091840
  H      -1.409598      2.333306     -0.307774
14
Coordinates from ORCA-job 4_d-cys E -721.570498667181
  S       2.370332     -0.049809      0.123685
  O      -1.100698      1.518376     -0.762942
  O      -0.996259      0.770441      1.368572
  N      -1.339684     -1.759476     -0.344829
  C      -0.310397     -0.714959     -0.436114
  C       0.957699     -1.191909      0.278765
  C      -0.812583      0.590963      0.174535
  H      -0.090380     -0.539436     -1.498429
  H       0.737543     -1.392129      1.335806
  H       1.287584     -2.128432     -0.188884
  H      -2.139409     -1.515240     -0.934031
  H      -1.687494     -1.817060      0.616851
  H       1.989439      0.850006      1.061385
  H      -1.468246      2.308580     -0.308249
14
Coordinates from ORCA-job 4_d-cys E -721.570606530014
  S       2.389203     -0.087388      0.155758
  O      -1.185763      1.483240     -0.763410
  O      -0.882850      0.814412      1.375193
  N      -1.341500     -1.732049     -0.363489
  C      -0.290600     -0.708374     -0.434730
  C       0.959544     -1.208840      0.291991
  C      -0.784352      0.601195      0.176451
  H      -0.056536     -0.529128     -1.493535
  H       0.724602     -1.406487      1.346479
  H       1.282036     -2.149840     -0.171918
  H      -2.133359     -1.467801     -0.954296
  H      -1.694685     -1.804035      0.594994
  H       1.969980      0.856564      1.031275
  H      -1.558274      2.268449     -0.304643
14
Coordinates from ORCA-job 4_d-cys E -721.570687247862
  S       2.402001     -0.111398      0.181877
  O      -1.250236      1.455328     -0.763510
  O      -0.798246      0.852420      1.369334
  N      -1.341991     -1.712862     -0.375861
  C      -0.276649     -0.703253     -0.437239
  C       0.958887     -1.218927      0.297734
  C      -0.765638      0.610102      0.172327
  H      -0.032076     -0.526004     -1.493986
  H       0.719683     -1.413096      1.351952
  H       1.276964     -2.163267     -0.162818
  H      -2.131486     -1.430877     -0.961691
  H      -1.694545     -1.793721      0.582182
  H       1.954863      0.849007      1.024777
  H      -1.624086      2.236464     -0.298958
14
Coordinates from ORCA-job 4_d-cys E -721.570722842397
  S       2.403067     -0.111005      0.189119
  O      -1.268007      1.448593     -0.768547
  O      -0.774640      0.866741      1.362219
  N      -1.341816     -1.710535     -0.376764
  C      -0.274575     -0.701664     -0.441076
  C       0.957445     -1.219558      0.293913
  C      -0.762824      0.613554      0.166948
  H      -0.028562     -0.528752     -1.498085
  H       0.724867     -1.412896      1.349684
  H       1.275334     -2.163829     -0.167212
  H      -2.135441     -1.420610     -0.953507
  H      -1.687530     -1.792434      0.583923
  H       1.949419      0.832374      1.047528
  H      -1.639291      2.229936     -0.302023
14
Coordinates from ORCA-job 4_d-cys E -721.570728108212
  S       2.401283     -0.106927      0.187244
  O      -1.259816      1.452286     -0.770548
  O      -0.785712      0.862458      1.362780
  N      -1.341409     -1.713953     -0.374790
  C      -0.275932     -0.701879     -0.441056
  C       0.957258     -1.218724      0.292240
  C      -0.765736      0.612527      0.166884
  H      -0.031007     -0.530014     -1.498344
  H       0.728557     -1.413795      1.348467
  H       1.275522     -2.161519     -0.171765
  H      -2.136887     -1.422731     -0.948685
  H      -1.684992     -1.793145      0.587067
  H       1.946804      0.830709      1.051707
  H      -1.630488      2.234624     -0.305080
14
Coordinates from ORCA-job 4_d-cys E -721.570730178624
  S       2.401262     -0.106315      0.188060
  O      -1.267397      1.447443     -0.771719
  O      -0.777573      0.868081      1.360970
  N      -1.341878     -1.712356     -0.375580
  C      -0.274432     -0.701015     -0.441009
  C       0.957699     -1.220051      0.292316
  C      -0.763931      0.613461      0.165969
  H      -0.029087     -0.529656     -1.498256
  H       0.729372     -1.415885      1.348357
  H       1.275122     -2.162105     -0.173556
  H      -2.137683     -1.417450     -0.947316
  H      -1.684252     -1.791099      0.586835
  H       1.948178      0.826155      1.058839
  H      -1.637954      2.230708     -0.307789
14
Coordinates from ORCA-job 4_d-cys E -721.570730779062
  S       2.400535     -0.105318      0.189433
  O      -1.263559      1.448669     -0.771830
  O      -0.780609      0.866110      1.361528
  N      -1.341890     -1.713291     -0.374621
  C      -0.274760     -0.701349     -0.440616
  C       0.957895     -1.220404      0.292191
  C      -0.764199      0.612800      0.166297
  H      -0.029960     -0.530167     -1.498028
  H       0.728968     -1.418844      1.347594
  H       1.276378     -2.160997     -0.175878
  H      -2.137989     -1.418134     -0.945879
  H      -1.683881     -1.790885      0.588076
  H       1.944006      0.829265      1.056163
  H      -1.633488      2.232461     -0.308311
