27
Coordinates from ORCA-job 0_Cu_Cys2 E -3080.453749447911
  S           2.05509052598941      2.67602278227743     -1.26754031028965
  O           1.26108625072742      3.00142386004493      2.35586947716796
  O          -0.22120853028540      1.68410886230331      1.29549550235408
  N           2.06439544185748     -0.15917849831696      1.69854466505112
  C           2.13792397343226      1.18095304879629      1.10526113577875
  C           2.11479563051136      1.06126644376937     -0.41215129975586
  C           0.92662809271648      1.96442792039450      1.56709270861199
  H           3.03901154835719      1.73802288382080      1.40229867269786
  H           3.00349275054543      0.50105141995154     -0.72038793005686
  H           1.23158350726793      0.48808552880754     -0.70199503215831
  H           2.22757590648214     -0.09070677611107      2.70283881272211
  H           2.84835377399015     -0.69984567181505      1.33464209484169
  H           0.43326129156377      3.44794339148692      2.61801706162885
  Cu          3.68695294770687      3.71064928739796     -0.35678081376272
  S           5.23557431498569      4.70652833997111      0.72088349424885
  O           5.26297038839489      7.38741987358088      3.12533939407670
  O           3.30809780547845      6.31944895601536      3.42412934810241
  N           5.11456726588152      4.45536083157369      4.79467948952554
  C           5.36140011847070      5.03792457928780      3.47159077723268
  C           4.93154507285264      4.04443597067674      2.40280768477148
  C           4.51739636240049      6.28983529081123      3.33721381359756
  H           6.40950368359314      5.31292460424726      3.30592077707226
  H           5.49984325303311      3.11877416216375      2.54592303068287
  H           3.87140214769457      3.81745917863277      2.54288811901253
  H           5.52238482313141      5.05487066030796      5.51020834604197
  H           5.62882953028908      3.57753762796393      4.84773817823553
  H           4.65071284793144      8.14357949595966      3.04601211656840
