27
Coordinates from ORCA-job 0_Cu_Cys2 E -3080.332276030086
  S       2.461362      0.944328      0.420668
  O      -1.972038      0.877928      0.490468
  O      -0.193238      1.786028     -0.585132
  N      -0.724438     -1.545172     -0.213232
  C       0.044662     -0.432572      0.347668
  C       1.465062     -0.439072     -0.220432
  C      -0.699438      0.848428      0.020168
  H       0.084362     -0.529672      1.439468
  H       1.976662     -1.370672      0.045068
  H       1.455762     -0.362972     -1.313832
  H      -1.634338     -1.595572      0.243968
  H      -0.253838     -2.424872     -0.004232
  H      -2.421538      1.723328      0.277268
  Cu      3.905451      2.949500      1.349911
  S       5.386729      5.067343      2.417184
  O       5.929531      8.493577      5.179538
  O       4.937365      6.462490      4.989854
  N       8.257188      7.031155      4.574190
  C       7.019795      6.832346      3.816999
  C       6.924394      5.381447      3.341492
  C       5.863870      7.218097      4.720844
  H       7.009489      7.505104      2.950788
  H       7.765702      5.141106      2.682295
  H       6.952316      4.683976      4.186569
  H       8.363579      8.019589      4.800393
  H       9.056888      6.786796      3.991279
  H       5.161865      8.718332      5.747324
27
Coordinates from ORCA-job 0_Cu_Cys2 E -3080.348822118205
  S       2.462291      1.048824      0.447621
  O      -2.072631      0.659433      0.397835
  O      -0.459753      1.717971     -0.755480
  N      -0.632475     -1.594245     -0.216674
  C       0.043144     -0.406216      0.325884
  C       1.477182     -0.356480     -0.190490
  C      -0.816644      0.778071     -0.074786
  H       0.064833     -0.452377      1.424288
  H       1.990733     -1.267345      0.126419
  H       1.487604     -0.327215     -1.282987
  H      -1.547730     -1.692488      0.217479
  H      -0.105565     -2.424294      0.045852
  H      -2.609151      1.424420      0.121155
  Cu      3.863977      3.047870      1.354907
  S       5.278333      5.148633      2.392089
  O       6.184640      8.583792      5.196991
  O       4.990949      6.679546      5.194864
  N       8.282823      6.929953      4.560136
  C       7.007259      6.825251      3.837202
  C       6.814126      5.391731      3.357936
  C       5.942372      7.320335      4.797876
  H       7.011983      7.492901      2.964076
  H       7.649269      5.127557      2.704645
  H       6.815230      4.702074      4.206093
  H       8.469387      7.906037      4.778393
  H       9.036926      6.629010      3.947094
  H       5.494056      8.877574      5.818120
27
Coordinates from ORCA-job 0_Cu_Cys2 E -3080.361623783466
  S       2.499228      1.179743      0.479903
  O      -2.021115      0.614860      0.405674
  O      -0.508424      1.721466     -0.815688
  N      -0.511254     -1.567286     -0.166879
  C       0.110755     -0.333942      0.355754
  C       1.537918     -0.254495     -0.139740
  C      -0.790504      0.794528     -0.096927
  H       0.130010     -0.329775      1.456953
  H       2.050643     -1.149883      0.216057
  H       1.547418     -0.264126     -1.230794
  H      -1.426264     -1.688685      0.258442
  H       0.048214     -2.361067      0.135932
  H      -2.585319      1.342001      0.093138
  Cu      3.825603      3.171471      1.341798
  S       5.120639      5.243652      2.316492
  O       6.278234      8.540528      5.167635
  O       4.945605      6.745333      5.227794
  N       8.225234      6.758903      4.534986
  C       6.937505      6.758783      3.812555
  C       6.657988      5.360749      3.310070
  C       5.923568      7.302154      4.795490
  H       6.964159      7.437068      2.946386
  H       7.489747      5.079670      2.661730
  H       6.626878      4.666753      4.151809
  H       8.477799      7.714593      4.769192
  H       8.947110      6.422851      3.902704
  H       5.621799      8.864479      5.806073
27
Coordinates from ORCA-job 0_Cu_Cys2 E -3080.379159339449
  S       2.573683      1.387430      0.531101
  O      -1.920533      0.624915      0.416944
  O      -0.495340      1.723072     -0.907961
  N      -0.312490     -1.498309     -0.037495
  C       0.237122     -0.203511      0.427759
  C       1.661466     -0.095243     -0.047175
  C      -0.706945      0.847280     -0.112053
  H       0.242208     -0.115912      1.526077
  H       2.181222     -0.961595      0.365559
  H       1.678572     -0.163967     -1.135448
  H      -1.227670     -1.639280      0.380134
  H       0.284053     -2.235518      0.331751
  H      -2.511545      1.296150      0.034141
  Cu      3.774467      3.370070      1.306771
  S       4.885492      5.400981      2.173959
  O       6.360094      8.421582      5.156010
  O       4.863199      6.766812      5.244429
  N       8.099064      6.478443      4.464895
  C       6.809270      6.641019      3.753940
  C       6.403989      5.302387      3.197653
  C       5.865583      7.233612      4.776253
  H       6.877673      7.348905      2.914188
  H       7.225867      4.984792      2.553506
  H       6.307415      4.589721      4.017766
  H       8.445088      7.393845      4.734755
  H       8.771952      6.105384      3.799774
  H       5.750215      8.767259      5.829307
27
Coordinates from ORCA-job 0_Cu_Cys2 E -3080.397570603688
  S       2.703020      1.696265      0.598379
  O      -1.738305      0.718564      0.452289
  O      -0.381354      1.717334     -1.017459
  N      -0.012363     -1.361047      0.202898
  C       0.446900      0.006143      0.555070
  C       1.873387      0.141855      0.101675
  C      -0.535784      0.939504     -0.116608
  H       0.421064      0.222191      1.634888
  H       2.406896     -0.670613      0.598551
  H       1.912066     -0.018035     -0.975999
  H      -0.929295     -1.512728      0.612821
  H       0.618134     -2.010445      0.668925
  H      -2.344701      1.311750     -0.027393
  Cu      3.707176      3.650563      1.227610
  S       4.582125      5.668581      1.944110
  O       6.413883      8.172969      5.160548
  O       4.718391      6.718611      5.217298
  N       7.857449      6.039212      4.334974
  C       6.604173      6.448998      3.650250
  C       6.019527      5.230199      2.990269
  C       5.755292      7.076855      4.734350
  H       6.755302      7.209276      2.870092
  H       6.817112      4.850858      2.347559
  H       5.803971      4.487873      3.759795
  H       8.330771      6.871018      4.673482
  H       8.462527      5.636671      3.622913
  H       5.855806      8.527904      5.875250
27
Coordinates from ORCA-job 0_Cu_Cys2 E -3080.406240724650
  S       2.832974      1.954506      0.643126
  O      -1.553976      0.888916      0.522892
  O      -0.228338      1.682246     -1.098358
  N       0.235750     -1.200128      0.446975
  C       0.642769      0.208157      0.677209
  C       2.067234      0.355456      0.213893
  C      -0.357305      1.042783     -0.089962
  H       0.598618      0.532603      1.727873
  H       2.621256     -0.416728      0.751219
  H       2.112732      0.144940     -0.854624
  H      -0.679926     -1.344446      0.863483
  H       0.882933     -1.778882      0.979428
  H      -2.170132      1.399853     -0.034501
  Cu      3.681637      3.846831      1.158805
  S       4.381722      5.795004      1.755900
  O       6.339647      7.931164      5.133025
  O       4.588300      6.537554      5.173164
  N       7.636336      5.706617      4.201311
  C       6.422390      6.261610      3.547304
  C       5.723082      5.142783      2.818087
  C       5.623205      6.880314      4.671785
  H       6.626724      7.059203      2.818752
  H       6.497510      4.698292      2.187086
  H       5.401852      4.402209      3.552675
  H       8.178594      6.474163      4.587679
  H       8.204628      5.301848      3.459659
  H       5.812954      8.263456      5.882655
27
Coordinates from ORCA-job 0_Cu_Cys2 E -3080.411083940663
  S       2.806418      1.895730      0.636226
  O      -1.561142      1.007651      0.485013
  O      -0.194581      1.545077     -1.216515
  N       0.184965     -1.222256      0.492106
  C       0.610023      0.183990      0.662392
  C       2.038378      0.308790      0.186867
  C      -0.364088      1.006224     -0.150372
  H       0.560365      0.548126      1.698264
  H       2.598421     -0.479328      0.695109
  H       2.079173      0.131053     -0.888541
  H      -0.736676     -1.336172      0.907265
  H       0.816279     -1.794795      1.050193
  H      -2.164953      1.503840     -0.101011
  Cu      3.660960      3.783935      1.178695
  S       4.391010      5.709871      1.816318
  O       6.238800      7.995234      5.137269
  O       4.708312      6.357859      5.293247
  N       7.734183      5.824430      4.141707
  C       6.451925      6.289980      3.565190
  C       5.772549      5.128726      2.873211
  C       5.662282      6.837430      4.732493
  H       6.563225      7.105336      2.836957
  H       6.540845      4.669660      2.243544
  H       5.463790      4.402836      3.629355
  H       8.243744      6.627642      4.502147
  H       8.291504      5.459303      3.370842
  H       5.727461      8.280151      5.918570
27
Coordinates from ORCA-job 0_Cu_Cys2 E -3080.413951523574
  S       2.798702      1.849479      0.630819
  O      -1.524592      1.158893      0.493424
  O      -0.155581      1.430668     -1.270327
  N       0.125704     -1.217434      0.522379
  C       0.597864      0.168974      0.672079
  C       2.024255      0.273115      0.165901
  C      -0.346634      1.013639     -0.151145
  H       0.558506      0.536041      1.705481
  H       2.600227     -0.535755      0.619047
  H       2.042699      0.146935     -0.916092
  H      -0.802234     -1.296464      0.934326
  H       0.728317     -1.813850      1.085486
  H      -2.125333      1.635771     -0.109003
  Cu      3.649781      3.722429      1.193095
  S       4.409058      5.586385      1.864969
  O       6.075034      8.015453      5.122413
  O       4.807094      6.170118      5.327960
  N       7.792974      5.945352      4.113951
  C       6.477772      6.306742      3.559476
  C       5.843979      5.096952      2.896918
  C       5.658936      6.790349      4.733933
  H       6.526534      7.128166      2.832270
  H       6.607033      4.632522      2.265548
  H       5.554680      4.377289      3.665467
  H       8.247963      6.785534      4.465598
  H       8.373435      5.616624      3.344673
  H       5.576998      8.246397      5.927894
27
Coordinates from ORCA-job 0_Cu_Cys2 E -3080.414335688777
  S       2.803893      1.826463      0.616296
  O      -1.457626      1.266706      0.605473
  O      -0.164073      1.469876     -1.221664
  N       0.119210     -1.232291      0.469409
  C       0.609720      0.139928      0.663717
  C       2.026621      0.256256      0.130557
  C      -0.343751      1.024833     -0.110918
  H       0.594235      0.461139      1.712649
  H       2.618891     -0.564431      0.538300
  H       2.020015      0.170774     -0.954719
  H      -0.804413     -1.317765      0.889327
  H       0.720010     -1.859398      0.999705
  H      -2.057804      1.797307      0.050584
  Cu      3.640320      3.686440      1.206083
  S       4.405709      5.530991      1.913407
  O       5.982605      8.072201      5.020999
  O       4.802992      6.184458      5.322408
  N       7.794560      5.944815      4.140306
  C       6.486455      6.288498      3.565516
  C       5.856573      5.062870      2.928564
  C       5.655561      6.800161      4.723887
  H       6.544827      7.091716      2.818868
  H       6.608369      4.582839      2.295737
  H       5.569181      4.355394      3.707825
  H       8.244455      6.793625      4.477092
  H       8.387166      5.598151      3.388785
  H       5.459471      8.338766      5.798348
27
Coordinates from ORCA-job 0_Cu_Cys2 E -3080.414973751329
  S       2.814027      1.815810      0.589305
  O      -1.406619      1.311385      0.716041
  O      -0.197936      1.496957     -1.171421
  N       0.122691     -1.233496      0.412265
  C       0.632264      0.123614      0.658084
  C       2.034691      0.250239      0.092268
  C      -0.328307      1.060314     -0.048830
  H       0.648460      0.391133      1.721616
  H       2.641460     -0.577406      0.464179
  H       2.000178      0.193117     -0.994806
  H      -0.792086     -1.330380      0.848702
  H       0.728722     -1.891925      0.897696
  H      -2.024163      1.857964      0.194896
  Cu      3.633153      3.669346      1.199623
  S       4.396695      5.525720      1.935922
  O       5.967748      8.127400      4.931745
  O       4.788669      6.252989      5.316109
  N       7.765339      5.912721      4.188288
  C       6.483238      6.272261      3.565720
  C       5.837551      5.043615      2.953726
  C       5.631285      6.848366      4.681108
  H       6.587370      7.046171      2.794072
  H       6.578912      4.535448      2.329815
  H       5.533003      4.356313      3.744962
  H       8.230343      6.759784      4.509142
  H       8.369890      5.522431      3.467771
  H       5.446596      8.430431      5.698540
27
Coordinates from ORCA-job 0_Cu_Cys2 E -3080.415503143924
  S       2.849749      1.820902      0.528124
  O      -1.279991      1.400222      0.926521
  O      -0.257327      1.547713     -1.070609
  N       0.140974     -1.214273      0.346638
  C       0.683533      0.117871      0.657423
  C       2.056729      0.260442      0.032807
  C      -0.290364      1.117558      0.061838
  H       0.757379      0.310902      1.734439
  H       2.683498     -0.571723      0.358646
  H       1.972440      0.230423     -1.053224
  H      -0.754227     -1.329528      0.818121
  H       0.758643     -1.911305      0.758442
  H      -1.921827      1.977674      0.471085
  Cu      3.643860      3.670698      1.157985
  S       4.390308      5.516619      1.914509
  O       5.912720      8.176576      4.773862
  O       4.728215      6.332165      5.270566
  N       7.690483      5.834686      4.276726
  C       6.463992      6.227252      3.565034
  C       5.799335      5.006963      2.963004
  C       5.577493      6.885055      4.606620
  H       6.649555      6.962295      2.771535
  H       6.537837      4.468957      2.361044
  H       5.461115      4.341408      3.760102
  H       8.178744      6.671567      4.590030
  H       8.314799      5.384642      3.609732
  H       5.375504      8.534565      5.505540
27
Coordinates from ORCA-job 0_Cu_Cys2 E -3080.416477493497
  S       2.931259      1.808341      0.366216
  O      -0.922109      1.611639      1.330962
  O      -0.354240      1.641782     -0.845410
  N       0.136826     -1.151668      0.276469
  C       0.780412      0.115925      0.662472
  C       2.083200      0.262725     -0.090713
  C      -0.183538      1.223541      0.279652
  H       0.979322      0.185075      1.738188
  H       2.734357     -0.579558      0.149665
  H       1.890667      0.268982     -1.164038
  H      -0.710400     -1.280820      0.827369
  H       0.756097     -1.913596      0.547247
  H      -1.578541      2.262310      1.014254
  Cu      3.689034      3.659679      1.028070
  S       4.417813      5.493405      1.818523
  O       5.748474      8.209927      4.488427
  O       4.606362      6.398518      5.172377
  N       7.518930      5.714368      4.443053
  C       6.414988      6.145390      3.567241
  C       5.752322      4.940753      2.941140
  C       5.452439      6.900356      4.465273
  H       6.743514      6.824968      2.772089
  H       6.506062      4.376576      2.383679
  H       5.349239      4.293214      3.724165
  H       8.026777      6.533466      4.772851
  H       8.183421      5.187333      3.878902
  H       5.170484      8.637694      5.148416
27
Coordinates from ORCA-job 0_Cu_Cys2 E -3080.418064493850
  S       3.030111      1.786640      0.192359
  O      -0.435620      1.860082      1.642448
  O      -0.410552      1.729995     -0.604186
  N       0.111953     -1.048381      0.279969
  C       0.879764      0.143645      0.687366
  C       2.107948      0.258028     -0.181250
  C      -0.016374      1.347388      0.476470
  H       1.189112      0.116665      1.737920
  H       2.762348     -0.594624      0.006747
  H       1.818797      0.269207     -1.233312
  H      -0.684324     -1.167811      0.905183
  H       0.702168     -1.863852      0.435896
  H      -1.066093      2.579911      1.440975
  Cu      3.722118      3.654633      0.895202
  S       4.412376      5.477230      1.725943
  O       5.524110      8.163800      4.244409
  O       4.493609      6.361244      5.109834
  N       7.334112      5.595904      4.549376
  C       6.338217      6.062127      3.563744
  C       5.703586      4.878846      2.879239
  C       5.313557      6.843759      4.361008
  H       6.766416      6.722585      2.802551
  H       6.480981      4.335685      2.333794
  H       5.272196      4.209194      3.629355
  H       7.845665      6.396584      4.917374
  H       8.024114      5.034089      4.053188
  H       4.902876      8.617751      4.844938
27
Coordinates from ORCA-job 0_Cu_Cys2 E -3080.421676867197
  S       3.189356      1.734412     -0.022362
  O       0.188592      2.203408      1.781204
  O      -0.360120      1.858546     -0.377259
  N       0.100131     -0.880166      0.430109
  C       1.005825      0.243260      0.763899
  C       2.147950      0.242615     -0.210698
  C       0.234332      1.526883      0.621789
  H       1.416860      0.191583      1.777177
  H       2.780808     -0.618131      0.006265
  H       1.771810      0.183267     -1.234150
  H      -0.633789     -0.942837      1.136844
  H       0.645951     -1.733173      0.536601
  H      -0.359785      2.996249      1.612900
  Cu      3.735467      3.670058      0.742711
  S       4.319875      5.487711      1.609875
  O       5.195513      7.992250      4.120721
  O       4.360784      6.136964      5.089509
  N       7.135986      5.422556      4.549370
  C       6.197698      5.962426      3.532998
  C       5.614514      4.827967      2.741766
  C       5.127742      6.665212      4.322969
  H       6.659099      6.665668      2.835885
  H       6.433975      4.385532      2.169234
  H       5.215417      4.080673      3.437024
  H       7.643872      6.192764      4.982440
  H       7.835973      4.884401      4.041202
  H       4.519336      8.390226      4.698517
27
Coordinates from ORCA-job 0_Cu_Cys2 E -3080.424845571053
  S       3.399559      1.646211     -0.316814
  O       0.796712      2.580144      1.740738
  O      -0.178544      2.041281     -0.223537
  N       0.178949     -0.634589      0.759175
  C       1.199253      0.441662      0.884818
  C       2.206348      0.255734     -0.205649
  C       0.535606      1.758981      0.702547
  H       1.741029      0.451671      1.835178
  H       2.810058     -0.605654      0.075421
  H       1.715349      0.084278     -1.165325
  H      -0.450203     -0.590906      1.564530
  H       0.701764     -1.498419      0.882639
  H       0.324303      3.405130      1.507814
  Cu      3.705884      3.669714      0.557185
  S       4.125657      5.484000      1.477971
  O       4.873571      7.737679      4.136835
  O       4.169723      5.792728      5.039901
  N       6.926630      5.182776      4.452162
  C       5.989075      5.821053      3.476898
  C       5.427770      4.755627      2.586936
  C       4.918834      6.401938      4.329569
  H       6.434750      6.582180      2.837359
  H       6.284921      4.422327      1.998141
  H       5.075502      3.942636      3.233525
  H       7.447603      5.911037      4.939038
  H       7.609769      4.702376      3.869466
  H       4.153299      8.028726      4.720019
27
Coordinates from ORCA-job 0_Cu_Cys2 E -3080.429931474972
  S       3.435435      1.641805     -0.429683
  O       1.051678      2.709930      1.725764
  O      -0.137903      2.117817     -0.101082
  N       0.222969     -0.531750      0.879574
  C       1.283101      0.508569      0.934954
  C       2.221285      0.281144     -0.214011
  C       0.652919      1.849177      0.768234
  H       1.875830      0.505412      1.854345
  H       2.820791     -0.594984      0.030633
  H       1.666966      0.116201     -1.138803
  H      -0.358575     -0.458411      1.717775
  H       0.720119     -1.413917      0.984802
  H       0.595465      3.547164      1.501615
  Cu      3.676974      3.645890      0.473705
  S       4.082180      5.451020      1.435843
  O       4.705426      7.645233      4.076914
  O       4.120052      5.688266      5.038234
  N       6.843282      5.106709      4.439557
  C       5.923551      5.757937      3.458360
  C       5.379875      4.704972      2.536720
  C       4.823033      6.317831      4.295044
  H       6.383950      6.531167      2.843844
  H       6.241189      4.380850      1.947496
  H       5.018340      3.878978      3.159871
  H       7.354236      5.828791      4.946593
  H       7.540526      4.634495      3.865636
  H       3.980478      7.920029      4.664608
27
Coordinates from ORCA-job 0_Cu_Cys2 E -3080.444816651258
  S       3.608182      1.472200     -0.639011
  O       1.156363      2.885334      1.768806
  O      -0.021908      2.302479     -0.058393
  N       0.261795     -0.328524      1.014408
  C       1.372978      0.631682      0.994253
  C       2.269978      0.289954     -0.210397
  C       0.767011      2.016555      0.824418
  H       1.981240      0.603452      1.907062
  H       2.773646     -0.658080     -0.004508
  H       1.639447      0.157066     -1.085840
  H      -0.277308     -0.188263      1.867459
  H       0.678258     -1.255183      1.120819
  H       0.739014      3.747844      1.567241
  Cu      3.687314      3.402986      0.315420
  S       4.070167      5.218510      1.382439
  O       4.386597      7.474543      4.123283
  O       4.022067      5.430754      4.985649
  N       6.865167      5.142644      4.383140
  C       5.874392      5.709770      3.448022
  C       5.417629      4.606335      2.484067
  C       4.677947      6.166434      4.275349
  H       6.273375      6.547471      2.864624
  H       6.284448      4.310288      1.882273
  H       5.081012      3.755352      3.075318
  H       7.298650      5.907005      4.899902
  H       7.618563      4.748778      3.816291
  H       3.617146      7.672938      4.694445
27
Coordinates from ORCA-job 0_Cu_Cys2 E -3080.447005003864
  S       3.655023      1.428239     -0.673991
  O       1.128019      2.960595      1.729340
  O       0.075689      2.336163     -0.160396
  N       0.320794     -0.270241      1.108855
  C       1.414450      0.705653      1.011937
  C       2.282403      0.314423     -0.188793
  C       0.791386      2.066898      0.784897
  H       2.042920      0.740132      1.910362
  H       2.752743     -0.646320      0.034856
  H       1.629150      0.179557     -1.051512
  H      -0.200051     -0.096272      1.968614
  H       0.750517     -1.185199      1.244015
  H       0.732870      3.819352      1.477606
  Cu      3.689081      3.339182      0.297291
  S       4.039666      5.157129      1.363283
  O       4.325534      7.386031      4.161642
  O       4.027376      5.323928      5.005816
  N       6.859370      5.132945      4.337704
  C       5.829910      5.672770      3.435591
  C       5.386771      4.569353      2.471720
  C       4.640732      6.081197      4.283077
  H       6.181299      6.532279      2.855240
  H       6.257534      4.280881      1.874404
  H       5.057327      3.712819      3.063389
  H       7.279675      5.905479      4.853489
  H       7.608874      4.768520      3.750017
  H       3.564107      7.554833      4.748085
27
Coordinates from ORCA-job 0_Cu_Cys2 E -3080.448763948852
  S       3.639145      1.424254     -0.677664
  O       0.953749      2.904253      1.762567
  O       0.053221      2.320457     -0.215182
  N       0.330397     -0.303242      1.100675
  C       1.390158      0.705972      0.982476
  C       2.245790      0.333665     -0.216750
  C       0.730287      2.045344      0.754696
  H       2.019824      0.771558      1.878760
  H       2.680802     -0.648374     -0.014195
  H       1.580752      0.237073     -1.080859
  H      -0.189927     -0.140694      1.963503
  H       0.774442     -1.211149      1.223102
  H       0.542756      3.760021      1.531223
  Cu      3.737553      3.289996      0.318522
  S       4.128864      5.103371      1.391051
  O       4.333598      7.378781      4.112070
  O       4.058783      5.337207      5.008249
  N       6.912040      5.203572      4.368061
  C       5.872639      5.687518      3.458562
  C       5.466208      4.564221      2.514916
  C       4.664596      6.087487      4.273039
  H       6.192410      6.553446      2.870135
  H       6.341380      4.264435      1.931950
  H       5.132354      3.709095      3.111285
  H       7.302468      5.994140      4.879464
  H       7.677420      4.845341      3.801067
  H       3.551460      7.552580      4.665817
27
Coordinates from ORCA-job 0_Cu_Cys2 E -3080.449962147100
  S       3.661640      1.404213     -0.753453
  O       0.815984      2.963065      1.712193
  O       0.084190      2.298205     -0.310405
  N       0.449098     -0.235794      1.257836
  C       1.458442      0.798735      0.991411
  C       2.253707      0.365814     -0.226152
  C       0.722694      2.083472      0.698335
  H       2.137480      0.968518      1.837446
  H       2.666675     -0.622757     -0.007009
  H       1.558211      0.261597     -1.061681
  H      -0.022211     -0.023911      2.137249
  H       0.940433     -1.112954      1.419117
  H       0.344903      3.775975      1.443344
  Cu      3.762310      3.268439      0.260883
  S       4.149731      5.082543      1.329342
  O       4.314479      7.315344      4.151937
  O       4.001226      5.243044      4.963591
  N       6.888176      5.150346      4.356565
  C       5.842622      5.637947      3.452966
  C       5.443423      4.523249      2.498309
  C       4.635266      6.015638      4.278646
  H       6.147366      6.514253      2.870029
  H       6.334838      4.209464      1.946900
  H       5.085344      3.675544      3.088762
  H       7.271323      5.934287      4.881988
  H       7.655094      4.806818      3.781413
  H       3.520728      7.469226      4.696978
27
Coordinates from ORCA-job 0_Cu_Cys2 E -3080.450644456053
  S       3.616669      1.399455     -0.983998
  O       0.927535      3.060216      1.829604
  O       0.136036      2.441388     -0.180995
  N       0.673923     -0.053447      1.502927
  C       1.630738      0.954059      1.018493
  C       2.231549      0.445633     -0.273808
  C       0.844632      2.225505      0.777231
  H       2.429433      1.180024      1.740496
  H       2.617041     -0.559119     -0.076487
  H       1.435859      0.360681     -1.014176
  H       0.345410      0.211244      2.429631
  H       1.180850     -0.927509      1.628086
  H       0.381282      3.841954      1.619122
  Cu      3.782656      3.214800      0.106168
  S       4.210623      4.996387      1.188864
  O       4.145697      7.173958      3.968853
  O       3.814470      5.137902      4.854789
  N       6.719394      5.005061      4.402428
  C       5.743489      5.513539      3.434893
  C       5.420017      4.419277      2.434802
  C       4.475204      5.889116      4.173560
  H       6.081984      6.402587      2.887846
  H       6.352010      4.118543      1.945700
  H       5.032316      3.555661      2.980808
  H       7.062552      5.769929      4.978069
  H       7.525623      4.664535      3.881507
  H       3.306179      7.328945      4.442127
27
Coordinates from ORCA-job 0_Cu_Cys2 E -3080.451399958969
  S       3.581104      1.389769     -1.061902
  O       0.721294      2.982701      1.890060
  O       0.182557      2.491431     -0.235109
  N       0.801701      0.008333      1.619592
  C       1.681281      1.007583      0.992547
  C       2.197505      0.453586     -0.324860
  C       0.801501      2.232596      0.774074
  H       2.528109      1.308424      1.628772
  H       2.552033     -0.564747     -0.137834
  H       1.372960      0.393891     -1.030643
  H       0.540160      0.324818      2.550439
  H       1.349655     -0.839645      1.756701
  H       0.095731      3.707301      1.698126
  Cu      3.862345      3.193421      0.023352
  S       4.356241      4.972034      1.074608
  O       4.179117      7.189423      3.982247
  O       3.740418      5.140103      4.784737
  N       6.666127      4.976385      4.437263
  C       5.733805      5.482087      3.425708
  C       5.440970      4.373468      2.424247
  C       4.439113      5.878409      4.125521
  H       6.099381      6.363694      2.881665
  H       6.396210      4.022739      2.017700
  H       4.981121      3.538776      2.955706
  H       6.981078      5.741714      5.027561
  H       7.496071      4.633310      3.955771
  H       3.345583      7.368721      4.460490
27
Coordinates from ORCA-job 0_Cu_Cys2 E -3080.452136570788
  S       3.467799      1.496085     -1.203897
  O       0.991169      2.975594      2.084212
  O       0.217223      2.592813      0.008174
  N       0.923056      0.013664      1.669185
  C       1.780051      1.018288      1.016982
  C       2.171342      0.518600     -0.361158
  C       0.934397      2.278150      0.933820
  H       2.686027      1.257157      1.593517
  H       2.547493     -0.501898     -0.249979
  H       1.278524      0.478266     -0.986504
  H       0.745527      0.294736      2.632650
  H       1.454058     -0.853644      1.727159
  H       0.376857      3.729379      1.991138
  Cu      3.841189      3.271081     -0.094893
  S       4.418917      5.018141      0.987336
  O       4.193504      7.239661      3.779164
  O       3.550790      5.249851      4.599796
  N       6.453728      4.834086      4.510544
  C       5.666999      5.414325      3.419473
  C       5.368639      4.332274      2.392891
  C       4.357243      5.923511      3.997109
  H       6.158374      6.254900      2.916289
  H       6.321642      3.920748      2.044414
  H       4.813970      3.527556      2.884118
  H       6.777744      5.574164      5.130023
  H       7.292319      4.422775      4.105813
  H       3.334589      7.490059      4.169164
27
Coordinates from ORCA-job 0_Cu_Cys2 E -3080.452467589515
  S       3.285222      1.621951     -1.379407
  O       1.410328      3.033215      2.289750
  O       0.327362      2.750468      0.336543
  N       1.178069      0.102228      1.816037
  C       1.960303      1.097606      1.061976
  C       2.126848      0.627937     -0.368023
  C       1.160402      2.381691      1.137609
  H       2.951725      1.289163      1.499331
  H       2.508591     -0.395731     -0.341960
  H       1.147103      0.609105     -0.850586
  H       1.153464      0.370152      2.799564
  H       1.687680     -0.779492      1.785209
  H       0.822678      3.813269      2.313576
  Cu      3.806703      3.348363     -0.260091
  S       4.520541      5.038616      0.830992
  O       4.177970      7.228705      3.566921
  O       3.271259      5.305019      4.295152
  N       6.095057      4.606127      4.561949
  C       5.518511      5.277650      3.394118
  C       5.246554      4.244748      2.310335
  C       4.203618      5.906248      3.807889
  H       6.155077      6.067044      2.981080
  H       6.194168      3.758537      2.056915
  H       4.570333      3.484626      2.715184
  H       6.403594      5.303696      5.237128
  H       6.939268      4.125279      4.257433
  H       3.300744      7.554102      3.841915
27
Coordinates from ORCA-job 0_Cu_Cys2 E -3080.452399854440
  S       3.149913      1.752061     -1.463575
  O       1.597028      2.895512      2.397443
  O       0.350304      2.701978      0.531988
  N       1.320602     -0.016771      1.779255
  C       2.043036      1.028401      1.033084
  C       2.112040      0.649619     -0.431045
  C       1.246573      2.297273      1.243036
  H       3.063435      1.196761      1.410198
  H       2.532422     -0.356851     -0.497666
  H       1.099066      0.619957     -0.838430
  H       1.360561      0.198313      2.774973
  H       1.836623     -0.888795      1.669664
  H       1.019191      3.674525      2.510876
  Cu      3.709470      3.439254     -0.297150
  S       4.443459      5.089589      0.839055
  O       4.503506      7.431897      3.434570
  O       3.241407      5.758592      4.247473
  N       5.855551      4.537573      4.622417
  C       5.451774      5.253477      3.408547
  C       5.011911      4.242076      2.357434
  C       4.276513      6.144661      3.748398
  H       6.245703      5.879985      2.988703
  H       5.864168      3.592145      2.133976
  H       4.210385      3.626366      2.778339
  H       6.274589      5.195481      5.277609
  H       6.602770      3.893659      4.367711
  H       3.701169      7.933585      3.669656
27
Coordinates from ORCA-job 0_Cu_Cys2 E -3080.452541359263
  S       3.233886      1.687803     -1.421431
  O       1.421469      2.908858      2.351935
  O       0.315973      2.684852      0.404569
  N       1.257375      0.003473      1.774326
  C       1.997231      1.039402      1.032660
  C       2.133141      0.622379     -0.417665
  C       1.168784      2.300271      1.176781
  H       2.997087      1.235483      1.449661
  H       2.544952     -0.390202     -0.436817
  H       1.141553      0.590374     -0.871954
  H       1.251837      0.244008      2.764955
  H       1.788179     -0.863802      1.707765
  H       0.815974      3.671697      2.420984
  Cu      3.754983      3.396631     -0.265270
  S       4.446099      5.077692      0.851107
  O       4.436376      7.404287      3.520838
  O       3.278762      5.643673      4.301413
  N       5.985776      4.577798      4.593968
  C       5.498493      5.281879      3.404242
  C       5.086022      4.256616      2.355669
  C       4.282259      6.097471      3.794789
  H       6.238027      5.961474      2.965742
  H       5.964085      3.648960      2.112058
  H       4.325384      3.600843      2.788846
  H       6.386078      5.251508      5.244464
  H       6.760535      3.982354      4.305793
  H       3.612852      7.854541      3.787112
27
Coordinates from ORCA-job 0_Cu_Cys2 E -3080.452492473092
  S       3.182245      1.721168     -1.465082
  O       1.511260      2.922811      2.399679
  O       0.334931      2.704924      0.493941
  N       1.358704      0.025465      1.813689
  C       2.054200      1.069950      1.041385
  C       2.125372      0.656427     -0.414695
  C       1.221487      2.322742      1.228016
  H       3.070445      1.274079      1.412449
  H       2.535853     -0.356324     -0.453476
  H       1.114842      0.624987     -0.825212
  H       1.396745      0.264095      2.804228
  H       1.893382     -0.836801      1.720140
  H       0.900034      3.677871      2.498615
  Cu      3.742662      3.415996     -0.308343
  S       4.470559      5.079199      0.810533
  O       4.482348      7.404362      3.484078
  O       3.216728      5.695789      4.211750
  N       5.865723      4.510656      4.600869
  C       5.450293      5.237053      3.397432
  C       5.027379      4.232613      2.334033
  C       4.258567      6.105383      3.746438
  H       6.233412      5.883353      2.984872
  H       5.885170      3.586682      2.117599
  H       4.225263      3.610728      2.742008
  H       6.273947      5.165030      5.266252
  H       6.622091      3.881536      4.336602
  H       3.669528      7.890552      3.718739
27
Coordinates from ORCA-job 0_Cu_Cys2 E -3080.452511648380
  S       3.188031      1.718613     -1.452996
  O       1.550022      2.956064      2.387817
  O       0.345779      2.711607      0.502374
  N       1.342918      0.033572      1.823519
  C       2.055334      1.070663      1.057082
  C       2.132375      0.654855     -0.399386
  C       1.235836      2.333133      1.234724
  H       3.071318      1.261546      1.435565
  H       2.545606     -0.356846     -0.435568
  H       1.122683      0.620569     -0.811884
  H       1.375784      0.272644      2.814178
  H       1.870509     -0.833798      1.735456
  H       0.952313      3.723015      2.477690
  Cu      3.749807      3.426771     -0.314533
  S       4.471859      5.097877      0.796556
  O       4.454873      7.390582      3.509528
  O       3.198494      5.655490      4.189640
  N       5.857923      4.494230      4.587199
  C       5.443603      5.232868      3.390464
  C       5.035996      4.238629      2.311153
  C       4.240727      6.084332      3.742050
  H       6.224856      5.890390      2.992624
  H       5.901868      3.605931      2.087496
  H       4.238928      3.602784      2.707433
  H       6.257935      5.143955      5.262391
  H       6.621554      3.875419      4.318849
  H       3.636242      7.865428      3.747118
27
Coordinates from ORCA-job 0_Cu_Cys2 E -3080.452546786290
  S       3.201203      1.708154     -1.446121
  O       1.506886      2.944852      2.377348
  O       0.337862      2.703891      0.469739
  N       1.324502      0.028876      1.813466
  C       2.041307      1.065726      1.050624
  C       2.133098      0.646720     -0.403265
  C       1.216161      2.326152      1.216378
  H       3.052780      1.261463      1.438809
  H       2.544994     -0.365687     -0.432808
  H       1.127756      0.613393     -0.826090
  H       1.346640      0.270434      2.803636
  H       1.854442     -0.837723      1.732602
  H       0.904398      3.708635      2.459907
  Cu      3.753034      3.417728     -0.302562
  S       4.462293      5.091487      0.811695
  O       4.449101      7.391628      3.513112
  O       3.219773      5.649035      4.221802
  N       5.894088      4.514838      4.588621
  C       5.458329      5.244241      3.394124
  C       5.049801      4.242250      2.322911
  C       4.251056      6.085312      3.756782
  H       6.227519      5.909263      2.985171
  H       5.918958      3.616778      2.092168
  H       4.262697      3.599813      2.728239
  H       6.294677      5.170617      5.257281
  H       6.660398      3.901960      4.314431
  H       3.629418      7.860486      3.758540
27
Coordinates from ORCA-job 0_Cu_Cys2 E -3080.452539316752
  S       3.195967      1.710466     -1.452008
  O       1.506154      2.943405      2.383546
  O       0.341126      2.707013      0.473104
  N       1.340052      0.033876      1.819579
  C       2.048624      1.071563      1.050072
  C       2.132121      0.650658     -0.403445
  C       1.220117      2.329565      1.219050
  H       3.061679      1.271696      1.431893
  H       2.542465     -0.362340     -0.433840
  H       1.124523      0.618325     -0.820776
  H       1.367164      0.277234      2.809141
  H       1.871869     -0.831326      1.736817
  H       0.899762      3.703730      2.469089
  Cu      3.753662      3.417966     -0.308202
  S       4.462762      5.089355      0.809557
  O       4.454828      7.390454      3.507438
  O       3.214767      5.655375      4.215815
  N       5.882957      4.508073      4.589700
  C       5.453456      5.238282      3.393662
  C       5.043183      4.237645      2.322321
  C       4.249373      6.085830      3.752882
  H       6.226281      5.899972      2.986024
  H       5.909594      3.607807      2.093339
  H       4.251910      3.598709      2.725133
  H       6.285295      5.162025      5.258955
  H       6.646273      3.890422      4.318001
  H       3.637206      7.864544      3.749692
27
Coordinates from ORCA-job 0_Cu_Cys2 E -3080.452553547009
  S       3.195879      1.708385     -1.457375
  O       1.501540      2.952417      2.385935
  O       0.347674      2.712914      0.469287
  N       1.361589      0.048528      1.833918
  C       2.059961      1.084797      1.053192
  C       2.136508      0.655109     -0.397985
  C       1.225197      2.339447      1.219097
  H       3.073796      1.293171      1.428576
  H       2.545664     -0.358478     -0.423730
  H       1.126843      0.621283     -0.809966
  H       1.392289      0.298423      2.821681
  H       1.897137     -0.814501      1.753527
  H       0.890067      3.708877      2.469831
  Cu      3.758498      3.418675     -0.319505
  S       4.453879      5.089971      0.806650
  O       4.454173      7.381729      3.507554
  O       3.206335      5.650153      4.211072
  N       5.870576      4.492630      4.585363
  C       5.444962      5.226632      3.390531
  C       5.033752      4.230562      2.316201
  C       4.243044      6.077839      3.750370
  H       6.219765      5.887868      2.985740
  H       5.898497      3.599901      2.083456
  H       4.240652      3.590928      2.714437
  H       6.276196      5.142705      5.256280
  H       6.629854      3.870327      4.313099
  H       3.638844      7.860032      3.749304
27
Coordinates from ORCA-job 0_Cu_Cys2 E -3080.452501101733
  S       3.199906      1.704854     -1.470926
  O       1.480873      2.961290      2.387343
  O       0.356644      2.710870      0.454945
  N       1.415128      0.069980      1.858973
  C       2.086658      1.107408      1.056521
  C       2.155292      0.659495     -0.389510
  C       1.230354      2.349098      1.215135
  H       3.099817      1.339303      1.420205
  H       2.569393     -0.352306     -0.403767
  H       1.142570      0.614542     -0.792539
  H       1.449254      0.334303      2.842750
  H       1.964957     -0.784491      1.785171
  H       0.855755      3.707067      2.466374
  Cu      3.761340      3.424665     -0.345224
  S       4.402122      5.097165      0.811063
  O       4.490062      7.381546      3.511173
  O       3.200645      5.681368      4.216675
  N       5.838761      4.457897      4.575996
  C       5.424650      5.202687      3.384252
  C       4.985635      4.219001      2.310807
  C       4.245790      6.083627      3.752312
  H       6.212078      5.847302      2.976729
  H       5.836004      3.574923      2.062687
  H       4.184629      3.589864      2.709964
  H       6.269596      5.094911      5.243547
  H       6.575017      3.810880      4.298450
  H       3.690241      7.883073      3.757435
27
Coordinates from ORCA-job 0_Cu_Cys2 E -3080.452468451206
  S       3.189854      1.708058     -1.485608
  O       1.498735      2.968181      2.398729
  O       0.368983      2.719328      0.469432
  N       1.453879      0.083000      1.875713
  C       2.108485      1.121408      1.060484
  C       2.161684      0.666812     -0.384368
  C       1.246443      2.358247      1.225479
  H       3.124850      1.361450      1.410108
  H       2.578736     -0.343841     -0.397557
  H       1.144428      0.615612     -0.775219
  H       1.498520      0.352103      2.857751
  H       2.008635     -0.768038      1.798704
  H       0.871153      3.711400      2.481682
  Cu      3.760780      3.430831     -0.368420
  S       4.386605      5.099210      0.801398
  O       4.512288      7.381261      3.508477
  O       3.185906      5.704834      4.201707
  N       5.798887      4.430821      4.571937
  C       5.404616      5.185150      3.379238
  C       4.952757      4.210863      2.302502
  C       4.241095      6.087447      3.743719
  H       6.206021      5.815158      2.976301
  H       5.794301      3.554644      2.055817
  H       4.141226      3.593354      2.698421
  H       6.241597      5.058100      5.240981
  H       6.521673      3.768101      4.296036
  H       3.721034      7.896830      3.753095
27
Coordinates from ORCA-job 0_Cu_Cys2 E -3080.452464540571
  S       3.185994      1.701940     -1.494987
  O       1.513578      2.986354      2.401576
  O       0.382116      2.736080      0.473350
  N       1.472698      0.102923      1.892480
  C       2.120800      1.137078      1.066873
  C       2.166507      0.671252     -0.375336
  C       1.258489      2.373436      1.229613
  H       3.139546      1.381036      1.407338
  H       2.585418     -0.338761     -0.382372
  H       1.147246      0.613483     -0.760531
  H       1.522954      0.379638      2.872171
  H       2.029572     -0.747153      1.818757
  H       0.888435      3.731713      2.482739
  Cu      3.763963      3.429610     -0.390960
  S       4.382534      5.094147      0.788416
  O       4.501363      7.369397      3.514590
  O       3.172197      5.689327      4.192984
  N       5.780737      4.410575      4.563727
  C       5.392138      5.172697      3.373519
  C       4.941544      4.203514      2.290289
  C       4.229110      6.073265      3.740107
  H       6.196797      5.801911      2.976415
  H       5.784741      3.547871      2.047033
  H       4.128875      3.586307      2.684158
  H       6.224495      5.034220      5.235776
  H       6.502787      3.747785      4.285842
  H       3.708536      7.880679      3.762971
27
Coordinates from ORCA-job 0_Cu_Cys2 E -3080.452469617760
  S       3.193573      1.698549     -1.492432
  O       1.490754      2.982715      2.396032
  O       0.376557      2.731277      0.457888
  N       1.467192      0.102278      1.889714
  C       2.115411      1.137148      1.065248
  C       2.170661      0.668068     -0.375632
  C       1.247342      2.370137      1.221213
  H       3.131571      1.385922      1.410056
  H       2.592519     -0.340736     -0.377608
  H       1.153891      0.606068     -0.766647
  H       1.510489      0.382207      2.868825
  H       2.028508     -0.745378      1.822034
  H       0.862771      3.726048      2.473033
  Cu      3.765481      3.428302     -0.389903
  S       4.372037      5.092625      0.795957
  O       4.501818      7.370696      3.515381
  O       3.183140      5.688695      4.209184
  N       5.794700      4.414487      4.562807
  C       5.398023      5.175829      3.374554
  C       4.942834      4.205017      2.294148
  C       4.235641      6.074179      3.747292
  H       6.199803      5.805718      2.972769
  H       5.786803      3.551812      2.046862
  H       4.134723      3.586001      2.694449
  H       6.241092      5.039658      5.231743
  H       6.517052      3.753587      4.281035
  H       3.708785      7.879419      3.768537
27
Coordinates from ORCA-job 0_Cu_Cys2 E -3080.452483523485
  S       3.181645      1.706605     -1.497675
  O       1.500242      2.974673      2.407038
  O       0.378343      2.735829      0.471744
  N       1.474942      0.099502      1.889136
  C       2.118291      1.136771      1.063769
  C       2.164738      0.672335     -0.378735
  C       1.251832      2.369475      1.229346
  H       3.136758      1.383993      1.402841
  H       2.586347     -0.336531     -0.386333
  H       1.145702      0.611910     -0.763924
  H       1.523617      0.377103      2.868660
  H       2.036125     -0.747822      1.816472
  H       0.872824      3.717557      2.491375
  Cu      3.766660      3.431718     -0.394188
  S       4.384986      5.091328      0.792398
  O       4.505898      7.372763      3.501971
  O       3.179373      5.698954      4.200264
  N       5.781291      4.412003      4.567880
  C       5.395411      5.174191      3.376421
  C       4.942723      4.203809      2.294183
  C       4.234840      6.078325      3.740025
  H       6.203013      5.799507      2.979090
  H       5.785775      3.546816      2.053863
  H       4.129863      3.588912      2.691257
  H       6.224804      5.036454      5.239384
  H       6.504209      3.749393      4.291446
  H       3.712918      7.884748      3.748830
27
Coordinates from ORCA-job 0_Cu_Cys2 E -3080.452474703287
  S       3.182835      1.704831     -1.496904
  O       1.498619      2.981857      2.403382
  O       0.378173      2.736166      0.468138
  N       1.477245      0.105118      1.893690
  C       2.119453      1.140838      1.065427
  C       2.166287      0.672669     -0.375786
  C       1.251779      2.373198      1.227215
  H       3.137576      1.390051      1.403996
  H       2.588658     -0.335890     -0.380997
  H       1.147293      0.611091     -0.760809
  H       1.525128      0.385596      2.872424
  H       2.039498     -0.741704      1.823643
  H       0.869995      3.723990      2.485380
  Cu      3.767543      3.431182     -0.394753
  S       4.384770      5.091882      0.791209
  O       4.499210      7.367431      3.504169
  O       3.177640      5.689254      4.201330
  N       5.782926      4.407421      4.565018
  C       5.394664      5.171576      3.375702
  C       4.943976      4.202607      2.291325
  C       4.231961      6.072175      3.741400
  H       6.200573      5.799863      2.979570
  H       5.788069      3.547385      2.049916
  H       4.132095      3.585475      2.687030
  H       6.224597      5.031304      5.238236
  H       6.507864      3.747872      4.286586
  H       3.704744      7.877085      3.750999
27
Coordinates from ORCA-job 0_Cu_Cys2 E -3080.452466299068
  S       3.183659      1.703078     -1.497055
  O       1.491007      2.991012      2.397886
  O       0.376270      2.735613      0.460703
  N       1.482059      0.113430      1.900147
  C       2.120873      1.147558      1.067313
  C       2.169448      0.673159     -0.371818
  C       1.249083      2.377887      1.223153
  H       3.137973      1.401763      1.405299
  H       2.594630     -0.334194     -0.372727
  H       1.150675      0.607690     -0.756669
  H       1.527549      0.398946      2.877508
  H       2.047620     -0.731536      1.834862
  H       0.859748      3.731363      2.476008
  Cu      3.768240      3.430739     -0.396351
  S       4.381775      5.091983      0.791040
  O       4.490914      7.359731      3.504275
  O       3.178036      5.677378      4.207623
  N       5.785932      4.400195      4.561309
  C       5.394404      5.167494      3.375288
  C       4.945375      4.200660      2.288073
  C       4.229486      6.063993      3.744146
  H       6.198156      5.799443      2.980507
  H       5.790914      3.548179      2.044308
  H       4.135775      3.579951      2.683029
  H       6.224970      5.023013      5.237238
  H       6.513681      3.745032      4.279935
  H       3.694919      7.866765      3.751510
27
Coordinates from ORCA-job 0_Cu_Cys2 E -3080.452453693740
  S       3.181360      1.704371     -1.498560
  O       1.487574      2.995258      2.395721
  O       0.373780      2.732999      0.458937
  N       1.488850      0.117042      1.904329
  C       2.123231      1.151329      1.068372
  C       2.171842      0.673714     -0.369751
  C       1.247522      2.379200      1.222182
  H       3.139791      1.409810      1.404813
  H       2.600386     -0.332196     -0.368856
  H       1.152832      0.604151     -0.753256
  H       1.533449      0.405488      2.880866
  H       2.057654     -0.725897      1.841187
  H       0.854155      3.733939      2.472401
  Cu      3.768144      3.432158     -0.399143
  S       4.380388      5.093184      0.789430
  O       4.492272      7.357591      3.504055
  O       3.178146      5.677246      4.209840
  N       5.782708      4.393753      4.559288
  C       5.392840      5.164208      3.374935
  C       4.942152      4.199860      2.285880
  C       4.229572      6.062367      3.744953
  H       6.197804      5.795425      2.981453
  H       5.786497      3.545882      2.041890
  H       4.131424      3.580093      2.680093
  H       6.221372      5.014543      5.237340
  H       6.510399      3.738992      4.276859
  H       3.697027      7.865814      3.751279
27
Coordinates from ORCA-job 0_Cu_Cys2 E -3080.452431049493
  S       3.170852      1.710331     -1.501245
  O       1.467786      3.013255      2.378430
  O       0.354594      2.714743      0.446605
  N       1.502541      0.126599      1.915866
  C       2.123861      1.161500      1.071251
  C       2.179649      0.672228     -0.362813
  C       1.232998      2.380040      1.213197
  H       3.136694      1.436160      1.406379
  H       2.625102     -0.326210     -0.354078
  H       1.161635      0.583209     -0.744952
  H       1.539024      0.425912      2.889439
  H       2.084164     -0.708264      1.863413
  H       0.826623      3.746188      2.446591
  Cu      3.765145      3.437112     -0.402786
  S       4.381066      5.097384      0.785698
  O       4.491014      7.349158      3.505504
  O       3.185078      5.668609      4.225616
  N       5.784274      4.376561      4.552615
  C       5.394408      5.157292      3.375698
  C       4.941239      4.200092      2.280171
  C       4.232572      6.054467      3.752166
  H       6.199479      5.790700      2.985899
  H       5.784076      3.544416      2.035089
  H       4.129902      3.579989      2.672989
  H       6.216145      4.992127      5.239760
  H       6.517081      3.729629      4.265496
  H       3.696173      7.857096      3.754539
27
Coordinates from ORCA-job 0_Cu_Cys2 E -3080.452429862799
  S       3.165661      1.714736     -1.503776
  O       1.465710      3.013897      2.377712
  O       0.349642      2.709846      0.448342
  N       1.508434      0.126892      1.917135
  C       2.125383      1.163190      1.071115
  C       2.181379      0.672964     -0.362579
  C       1.230725      2.378837      1.213451
  H       3.137732      1.441500      1.404836
  H       2.631287     -0.323513     -0.353391
  H       1.163322      0.578641     -0.743287
  H       1.545204      0.426969      2.890473
  H       2.092751     -0.706097      1.864510
  H       0.822348      3.744838      2.446393
  Cu      3.763003      3.439379     -0.404073
  S       4.380814      5.098244      0.785500
  O       4.497659      7.350107      3.503810
  O       3.185482      5.674566      4.224290
  N       5.779724      4.373519      4.553267
  C       5.393481      5.155103      3.375707
  C       4.937533      4.199211      2.280437
  C       4.234612      6.056412      3.751276
  H       6.200877      5.785620      2.985970
  H       5.778416      3.540966      2.035461
  H       4.124100      3.581710      2.672961
  H       6.212513      4.987847      5.240894
  H       6.510701      3.723983      4.267361
  H       3.704677      7.860954      3.752747
27
Coordinates from ORCA-job 0_Cu_Cys2 E -3080.452360814385
  S       3.111992      1.754396     -1.528097
  O       1.419487      3.037379      2.355120
  O       0.291728      2.648623      0.447510
  N       1.577867      0.146065      1.943455
  C       2.141545      1.193008      1.074312
  C       2.208216      0.679616     -0.350451
  C       1.196465      2.370541      1.205754
  H       3.144098      1.521501      1.392936
  H       2.712783     -0.290410     -0.325995
  H       1.193585      0.518165     -0.717273
  H       1.611290      0.464233      2.911261
  H       2.197745     -0.661481      1.898920
  H       0.746440      3.741478      2.419021
  Cu      3.743486      3.461644     -0.422527
  S       4.375093      5.107655      0.779320
  O       4.560051      7.348402      3.505020
  O       3.189699      5.714339      4.212308
  N       5.739221      4.330896      4.550741
  C       5.384261      5.126260      3.372615
  C       4.901464      4.188253      2.275089
  C       4.253636      6.062557      3.747121
  H       6.212012      5.731896      2.985813
  H       5.723360      3.507187      2.027503
  H       4.069182      3.593772      2.663132
  H       6.180570      4.930295      5.245766
  H       6.453340      3.660377      4.270996
  H       3.784554      7.883677      3.757171
27
Coordinates from ORCA-job 0_Cu_Cys2 E -3080.452382939867
  S       3.070448      1.785643     -1.535831
  O       1.379812      3.052786      2.327315
  O       0.240785      2.595419      0.441386
  N       1.595655      0.148213      1.949993
  C       2.135482      1.202564      1.074850
  C       2.222309      0.679781     -0.345135
  C       1.161182      2.356998      1.194085
  H       3.128471      1.558537      1.393905
  H       2.768531     -0.267347     -0.312185
  H       1.215435      0.469998     -0.708884
  H       1.619261      0.473817      2.915696
  H       2.235583     -0.644052      1.912788
  H       0.688981      3.740054      2.385741
  Cu      3.727811      3.476705     -0.419859
  S       4.390054      5.112998      0.779738
  O       4.586556      7.347548      3.508172
  O       3.202137      5.723758      4.212304
  N       5.738637      4.320164      4.552899
  C       5.392715      5.118817      3.374632
  C       4.902749      4.186231      2.276294
  C       4.269378      6.063762      3.748748
  H       6.225859      5.717697      2.988788
  H       5.717936      3.497198      2.028657
  H       4.063258      3.600353      2.661865
  H       6.176704      4.916543      5.252425
  H       6.451886      3.647272      4.276920
  H       3.815556      7.888865      3.761232
27
Coordinates from ORCA-job 0_Cu_Cys2 E -3080.452456113465
  S       3.040767      1.803265     -1.535761
  O       1.349185      3.066347      2.296184
  O       0.203485      2.561276      0.426164
  N       1.581196      0.146030      1.947538
  C       2.117634      1.202497      1.072320
  C       2.225367      0.674397     -0.344140
  C       1.131283      2.347783      1.177057
  H       3.104073      1.569028      1.398663
  H       2.798689     -0.256390     -0.304765
  H       1.226048      0.434861     -0.710922
  H       1.596931      0.474262      2.912524
  H       2.227399     -0.641443      1.916603
  H       0.649071      3.744747      2.349299
  Cu      3.718292      3.481492     -0.407600
  S       4.411404      5.108579      0.787387
  O       4.580218      7.344637      3.518036
  O       3.213338      5.703649      4.217402
  N       5.768045      4.333280      4.558918
  C       5.409842      5.124007      3.378954
  C       4.927682      4.184108      2.283379
  C       4.276334      6.056838      3.753870
  H       6.236032      5.730412      2.990165
  H       5.746722      3.499667      2.036559
  H       4.090815      3.594594      2.669423
  H       6.201853      4.937424      5.254512
  H       6.488484      3.668050      4.283126
  H       3.802982      7.876926      3.771645
27
Coordinates from ORCA-job 0_Cu_Cys2 E -3080.452434149322
  S       2.990908      1.830282     -1.542722
  O       1.285917      3.110898      2.240382
  O       0.142701      2.492567      0.402588
  N       1.607626      0.174743      1.972288
  C       2.111610      1.231932      1.079038
  C       2.251732      0.678123     -0.324662
  C       1.084458      2.342759      1.151334
  H       3.081665      1.640543      1.405028
  H       2.880980     -0.214601     -0.262789
  H       1.268901      0.370370     -0.685577
  H       1.608712      0.521411      2.930917
  H       2.279989     -0.591000      1.958439
  H       0.560689      3.763743      2.276469
  Cu      3.703120      3.492715     -0.410416
  S       4.420926      5.108430      0.787583
  O       4.584540      7.324418      3.534357
  O       3.223111      5.675982      4.226891
  N       5.781703      4.307848      4.551496
  C       5.417962      5.105987      3.378050
  C       4.934712      4.172727      2.276922
  C       4.283774      6.034585      3.762000
  H       6.242205      5.716206      2.991135
  H       5.752307      3.487960      2.026362
  H       4.096931      3.582244      2.660110
  H       6.215544      4.908542      5.250196
  H       6.504125      3.647708      4.268498
  H       3.806323      7.853202      3.792620
27
Coordinates from ORCA-job 0_Cu_Cys2 E -3080.452480718448
  S       2.973890      1.836474     -1.535386
  O       1.256524      3.139278      2.202934
  O       0.112977      2.463526      0.385785
  N       1.591849      0.184223      1.979854
  C       2.095670      1.239303      1.083742
  C       2.254404      0.676431     -0.314626
  C       1.058730      2.342038      1.134416
  H       3.058970      1.657228      1.416792
  H       2.902765     -0.201675     -0.242847
  H       1.279445      0.346391     -0.677636
  H       1.588720      0.535001      2.937000
  H       2.266689     -0.579373      1.971620
  H       0.523323      3.783817      2.226886
  Cu      3.707400      3.493198     -0.405633
  S       4.443137      5.103380      0.789274
  O       4.557381      7.310178      3.559036
  O       3.222397      5.627986      4.221125
  N       5.814667      4.314880      4.550008
  C       5.431483      5.108415      3.378680
  C       4.967061      4.169008      2.274117
  C       4.278440      6.012444      3.766079
  H       6.243522      5.735827      2.993857
  H       5.795585      3.496997      2.025412
  H       4.137696      3.564774      2.654701
  H       6.247803      4.922664      5.243415
  H       6.545172      3.666907      4.259399
  H       3.767472      7.821002      3.818536
27
Coordinates from ORCA-job 0_Cu_Cys2 E -3080.452471228244
  S       2.937826      1.857443     -1.537065
  O       1.210499      3.171447      2.163630
  O       0.065081      2.404597      0.384606
  N       1.613838      0.202220      1.999044
  C       2.090495      1.260314      1.091913
  C       2.268867      0.685544     -0.299470
  C       1.022858      2.334245      1.124279
  H       3.040753      1.708439      1.422598
  H       2.951860     -0.165100     -0.216584
  H       1.307249      0.311906     -0.655452
  H       1.605794      0.561403      2.953116
  H       2.306632     -0.545287      1.995235
  H       0.458642      3.794483      2.176103
  Cu      3.707580      3.502793     -0.413461
  S       4.465902      5.103302      0.781501
  O       4.563170      7.296085      3.577430
  O       3.220047      5.606447      4.203108
  N       5.816014      4.296807      4.546301
  C       5.437199      5.096070      3.377027
  C       4.979072      4.162086      2.265505
  C       4.280980      5.996030      3.763863
  H       6.250062      5.726887      2.999520
  H       5.808429      3.489622      2.020367
  H       4.147222      3.556916      2.639323
  H       6.248564      4.901316      5.242979
  H       6.546832      3.649872      4.254025
  H       3.771703      7.804437      3.837099
27
Coordinates from ORCA-job 0_Cu_Cys2 E -3080.452481434661
  S       2.894688      1.882836     -1.539009
  O       1.159595      3.197829      2.123407
  O       0.015112      2.340856      0.385627
  N       1.638337      0.218811      2.016315
  C       2.083159      1.280689      1.097609
  C       2.281574      0.696415     -0.287037
  C       0.983675      2.322372      1.114149
  H       3.018764      1.761040      1.424162
  H       2.999997     -0.123814     -0.195588
  H       1.335276      0.278852     -0.635183
  H       1.624384      0.586284      2.967195
  H       2.351390     -0.509512      2.016627
  H       0.388838      3.797388      2.127002
  Cu      3.705145      3.512391     -0.418676
  S       4.492101      5.100254      0.776343
  O       4.572114      7.283337      3.588170
  O       3.221392      5.590307      4.187817
  N       5.817792      4.280948      4.546363
  C       5.445069      5.083760      3.377378
  C       4.992623      4.153457      2.260586
  C       4.286583      5.982243      3.761027
  H       6.259813      5.715960      3.006325
  H       5.821718      3.478982      2.019956
  H       4.157157      3.549328      2.628307
  H       6.247479      4.883452      5.246604
  H       6.549962      3.634899      4.255422
  H       3.779433      7.790959      3.845641
27
Coordinates from ORCA-job 0_Cu_Cys2 E -3080.452507060228
  S       2.851891      1.909034     -1.538526
  O       1.114323      3.218919      2.087839
  O      -0.029711      2.284017      0.390661
  N       1.656371      0.231445      2.029357
  C       2.073700      1.297394      1.102658
  C       2.290797      0.707998     -0.276921
  C       0.947781      2.310469      1.106731
  H       2.995491      1.805069      1.426555
  H       3.040420     -0.083360     -0.180139
  H       1.359823      0.251875     -0.618060
  H       1.636788      0.604298      2.978072
  H       2.386675     -0.479682      2.032091
  H       0.328430      3.798433      2.084857
  Cu      3.703512      3.520812     -0.421373
  S       4.522186      5.095087      0.771396
  O       4.576484      7.271409      3.594678
  O       3.222322      5.573085      4.170988
  N       5.821160      4.270211      4.548544
  C       5.454169      5.074111      3.378352
  C       5.011235      4.145032      2.256879
  C       4.290822      5.968972      3.756240
  H       6.269742      5.709139      3.014027
  H       5.842181      3.470843      2.021841
  H       4.173619      3.539925      2.618205
  H       6.245251      4.872675      5.252257
  H       6.556698      3.626400      4.261116
  H       3.781012      7.776715      3.848214
27
Coordinates from ORCA-job 0_Cu_Cys2 E -3080.452545716331
  S       2.800661      1.945259     -1.533948
  O       1.076509      3.227255      2.067485
  O      -0.077255      2.232027      0.412844
  N       1.679380      0.233664      2.037728
  C       2.060927      1.307143      1.104585
  C       2.282937      0.722469     -0.275932
  C       0.911519      2.293700      1.110918
  H       2.970939      1.840300      1.419311
  H       3.054661     -0.048584     -0.187030
  H       1.361246      0.242139     -0.608870
  H       1.662606      0.606895      2.986323
  H       2.427043     -0.459418      2.032735
  H       0.279115      3.790312      2.065389
  Cu      3.716118      3.529678     -0.426742
  S       4.576657      5.084085      0.763131
  O       4.579891      7.263824      3.587764
  O       3.217935      5.562765      4.135903
  N       5.814486      4.267701      4.561119
  C       5.465557      5.068435      3.383389
  C       5.043118      4.136448      2.256723
  C       4.293391      5.960689      3.741756
  H       6.284964      5.705803      3.031856
  H       5.878359      3.462492      2.036453
  H       4.201531      3.530737      2.607300
  H       6.225647      4.872243      5.270580
  H       6.555486      3.623918      4.287972
  H       3.779745      7.768345      3.827796
27
Coordinates from ORCA-job 0_Cu_Cys2 E -3080.452620893153
  S       2.724874      2.000042     -1.528814
  O       1.011509      3.243331      2.030747
  O      -0.137908      2.143450      0.440932
  N       1.719331      0.247211      2.052545
  C       2.050688      1.329968      1.111877
  C       2.292394      0.749529     -0.267152
  C       0.862567      2.269164      1.113174
  H       2.937960      1.904127      1.418965
  H       3.105581      0.021479     -0.183027
  H       1.394482      0.218234     -0.587336
  H       1.695807      0.623624      2.999800
  H       2.494700     -0.414878      2.044589
  H       0.193303      3.775621      2.025946
  Cu      3.716737      3.543397     -0.430008
  S       4.636940      5.071138      0.750818
  O       4.598152      7.251378      3.576490
  O       3.218233      5.557069      4.100052
  N       5.800466      4.250215      4.570378
  C       5.476514      5.051448      3.386228
  C       5.067676      4.121094      2.253668
  C       4.302431      5.949473      3.724833
  H       6.304430      5.685246      3.048150
  H       5.900906      3.439832      2.048603
  H       4.215356      3.522853      2.590639
  H       6.199201      4.853094      5.288172
  H       6.543694      3.602658      4.312805
  H       3.797148      7.760526      3.803463
27
Coordinates from ORCA-job 0_Cu_Cys2 E -3080.452664182254
  S       2.645570      2.068977     -1.520258
  O       0.936815      3.243764      2.008146
  O      -0.193301      2.036234      0.483384
  N       1.779868      0.260576      2.065410
  C       2.048218      1.355088      1.120634
  C       2.306341      0.787674     -0.261816
  C       0.815693      2.234088      1.125178
  H       2.906819      1.977244      1.417312
  H       3.157114      0.102405     -0.189337
  H       1.435017      0.207773     -0.570211
  H       1.744819      0.637926      3.012096
  H       2.589073     -0.359683      2.053290
  H       0.095091      3.738676      2.003656
  Cu      3.718523      3.558862     -0.431279
  S       4.703458      5.058331      0.733131
  O       4.641547      7.245650      3.548295
  O       3.222028      5.580219      4.060675
  N       5.763866      4.224626      4.580961
  C       5.483110      5.028273      3.388800
  C       5.076565      4.104352      2.251354
  C       4.319751      5.949680      3.702078
  H       6.329293      5.645916      3.065529
  H       5.897023      3.403133      2.062785
  H       4.202189      3.528871      2.570280
  H       6.151890      4.819915      5.310471
  H       6.499416      3.559943      4.346746
  H       3.847377      7.771814      3.759230
27
Coordinates from ORCA-job 0_Cu_Cys2 E -3080.452681607768
  S       2.550952      2.120581     -1.507402
  O       0.882536      3.280089      1.951999
  O      -0.247007      1.967735      0.518295
  N       1.800480      0.281521      2.079828
  C       2.028737      1.382633      1.130909
  C       2.311207      0.820652     -0.247761
  C       0.769042      2.223113      1.126819
  H       2.864765      2.033400      1.426463
  H       3.207122      0.194251     -0.181408
  H       1.472198      0.185276     -0.536914
  H       1.765584      0.657655      3.026905
  H       2.626974     -0.315845      2.059285
  H       0.026569      3.748411      1.944842
  Cu      3.714377      3.565156     -0.436030
  S       4.770957      5.021781      0.724753
  O       4.616776      7.215651      3.540898
  O       3.213254      5.526689      4.014534
  N       5.771707      4.216877      4.590942
  C       5.497218      5.012997      3.390993
  C       5.129848      4.077736      2.248518
  C       4.312143      5.914913      3.680035
  H       6.338781      5.644233      3.082864
  H       5.964831      3.387732      2.083176
  H       4.260982      3.488532      2.557613
  H       6.139056      4.822700      5.322730
  H       6.525013      3.567917      4.368510
  H       3.809069      7.727936      3.735143
27
Coordinates from ORCA-job 0_Cu_Cys2 E -3080.452619827943
  S       2.597498      2.087789     -1.526589
  O       1.072556      3.283132      2.053627
  O      -0.187300      2.141339      0.583668
  N       1.734968      0.217078      2.036877
  C       2.041876      1.336408      1.130939
  C       2.265145      0.801201     -0.270405
  C       0.856168      2.279292      1.183089
  H       2.933852      1.899991      1.440431
  H       3.110561      0.106663     -0.229876
  H       1.379276      0.236527     -0.567738
  H       1.735152      0.556280      2.998249
  H       2.510846     -0.443261      1.984776
  H       0.260960      3.822504      2.084581
  Cu      3.753608      3.560038     -0.461687
  S       4.791370      5.024218      0.709733
  O       4.544357      7.228127      3.514105
  O       3.172597      5.514683      3.987318
  N       5.741086      4.249152      4.598337
  C       5.471999      5.043608      3.394181
  C       5.147345      4.099319      2.243875
  C       4.265821      5.922656      3.658268
  H       6.309539      5.688044      3.103694
  H       6.004603      3.432868      2.098426
  H       4.288604      3.489132      2.539766
  H       6.093208      4.861215      5.332487
  H       6.507936      3.613410      4.382961
  H       3.719538      7.718911      3.693445
27
Coordinates from ORCA-job 0_Cu_Cys2 E -3080.452810460725
  S       2.589464      2.121262     -1.512676
  O       1.014897      3.259351      2.050189
  O      -0.204538      2.068417      0.581966
  N       1.763927      0.216623      2.038439
  C       2.046549      1.340047      1.133519
  C       2.284392      0.814235     -0.270833
  C       0.834566      2.246761      1.180249
  H       2.921216      1.932146      1.444686
  H       3.139264      0.131843     -0.230094
  H       1.411505      0.233932     -0.575426
  H       1.751241      0.557866      2.999346
  H       2.557391     -0.422158      1.991346
  H       0.186385      3.775227      2.076567
  Cu      3.744742      3.569025     -0.444178
  S       4.793471      5.036902      0.706944
  O       4.609337      7.244358      3.507749
  O       3.188859      5.568847      3.982697
  N       5.720691      4.239578      4.599102
  C       5.476030      5.033489      3.392079
  C       5.120924      4.098345      2.245887
  C       4.294358      5.945914      3.657508
  H       6.328442      5.656487      3.096683
  H       5.957121      3.407875      2.090892
  H       4.241938      3.514595      2.535272
  H       6.083497      4.842017      5.335658
  H       6.465525      3.575537      4.394371
  H       3.801978      7.761804      3.688599
27
Coordinates from ORCA-job 0_Cu_Cys2 E -3080.452813010120
  S       2.557316      2.136043     -1.503456
  O       0.961056      3.268052      2.007505
  O      -0.224313      2.009360      0.569551
  N       1.798523      0.241654      2.055366
  C       2.044991      1.357506      1.129562
  C       2.287114      0.819783     -0.267105
  C       0.808380      2.230256      1.164135
  H       2.904146      1.977945      1.426158
  H       3.160729      0.160988     -0.226126
  H       1.424381      0.220757     -0.564917
  H       1.781339      0.597629      3.010809
  H       2.609267     -0.375462      2.013590
  H       0.116520      3.757395      2.024069
  Cu      3.722468      3.571159     -0.428733
  S       4.792472      5.027883      0.717514
  O       4.623997      7.235308      3.500355
  O       3.200718      5.569067      3.998665
  N       5.728083      4.227207      4.603068
  C       5.482081      5.021470      3.396786
  C       5.120646      4.086399      2.252101
  C       4.305436      5.940435      3.663803
  H       6.336071      5.640591      3.098554
  H       5.952289      3.389778      2.098771
  H       4.241195      3.505471      2.546698
  H       6.094964      4.829575      5.338123
  H       6.473034      3.564729      4.393834
  H       3.820262      7.759347      3.677861
27
Coordinates from ORCA-job 0_Cu_Cys2 E -3080.452898626017
  S       2.516528      2.178298     -1.497566
  O       0.982257      3.264634      2.028807
  O      -0.238264      1.993239      0.631538
  N       1.815575      0.218345      2.040002
  C       2.047987      1.351757      1.133189
  C       2.278309      0.840574     -0.277088
  C       0.810014      2.221009      1.195773
  H       2.907927      1.971132      1.430677
  H       3.155302      0.185213     -0.259316
  H       1.416392      0.239498     -0.573128
  H       1.809484      0.556567      3.002058
  H       2.627660     -0.395425      1.977526
  H       0.139076      3.755163      2.062700
  Cu      3.733450      3.576574     -0.433036
  S       4.841693      5.009274      0.705465
  O       4.641963      7.243206      3.476683
  O       3.189069      5.593612      3.944128
  N       5.691144      4.234549      4.618018
  C       5.477943      5.018945      3.399309
  C       5.126218      4.078162      2.257083
  C       4.305763      5.951605      3.635747
  H       6.343901      5.626336      3.111108
  H       5.951882      3.370650      2.123241
  H       4.232532      3.512710      2.537288
  H       6.047989      4.839702      5.355509
  H       6.431151      3.559476      4.433005
  H       3.840227      7.775520      3.637818
27
Coordinates from ORCA-job 0_Cu_Cys2 E -3080.452970861653
  S       2.487409      2.211393     -1.497946
  O       1.041766      3.237704      2.073308
  O      -0.236595      2.003074      0.694934
  N       1.818669      0.162897      2.000397
  C       2.052766      1.320114      1.124666
  C       2.252022      0.847590     -0.304284
  C       0.830171      2.207123      1.232945
  H       2.927576      1.917105      1.424529
  H       3.118790      0.178878     -0.319427
  H       1.376933      0.267866     -0.604359
  H       1.831027      0.472444      2.971967
  H       2.621203     -0.459697      1.908013
  H       0.208652      3.742211      2.135122
  Cu      3.738199      3.581804     -0.429542
  S       4.874527      4.993898      0.707265
  O       4.681453      7.274673      3.436685
  O       3.187830      5.664781      3.912523
  N       5.648194      4.262050      4.644553
  C       5.470790      5.032294      3.411072
  C       5.116072      4.081754      2.277666
  C       4.316001      5.993499      3.613667
  H       6.354621      5.615495      3.127069
  H       5.929287      3.356341      2.166297
  H       4.206210      3.539813      2.551391
  H       6.004567      4.870966      5.379002
  H       6.377264      3.569557      4.481865
  H       3.887765      7.824697      3.577162
27
Coordinates from ORCA-job 0_Cu_Cys2 E -3080.453025559495
  S       2.442240      2.256259     -1.487206
  O       1.044647      3.228994      2.084315
  O      -0.249609      1.970619      0.742783
  N       1.842449      0.143390      1.983719
  C       2.055563      1.315605      1.123440
  C       2.241589      0.867769     -0.315898
  C       0.826342      2.190081      1.255965
  H       2.928342      1.916704      1.421499
  H       3.115754      0.209652     -0.353559
  H       1.368896      0.283650     -0.614069
  H       1.863531      0.438490      2.959706
  H       2.649620     -0.470044      1.872548
  H       0.207447      3.725007      2.160268
  Cu      3.737650      3.585828     -0.422889
  S       4.914949      4.969040      0.706103
  O       4.710467      7.283365      3.403962
  O       3.188260      5.700515      3.880573
  N       5.618177      4.271975      4.662287
  C       5.468301      5.029576      3.417475
  C       5.115060      4.070917      2.290276
  C       4.324830      6.009576      3.592312
  H       6.364291      5.596473      3.138428
  H       5.917386      3.330562      2.200419
  H       4.191722      3.548027      2.555770
  H       5.972991      4.884798      5.394235
  H       6.339920      3.567885      4.517518
  H       3.922355      7.845610      3.526561
27
Coordinates from ORCA-job 0_Cu_Cys2 E -3080.453140195228
  S       2.383183      2.318520     -1.470137
  O       1.070049      3.205301      2.109264
  O      -0.257867      1.937013      0.811260
  N       1.864299      0.096277      1.942611
  C       2.059997      1.293808      1.114117
  C       2.214883      0.890244     -0.342410
  C       0.832066      2.162910      1.290999
  H       2.939255      1.885628      1.411941
  H       3.093026      0.240842     -0.418595
  H       1.338165      0.313817     -0.643204
  H       1.904502      0.362344      2.926434
  H       2.668715     -0.513137      1.796481
  H       0.230766      3.693689      2.211413
  Cu      3.733424      3.588024     -0.404965
  S       4.970450      4.923282      0.714444
  O       4.761667      7.308152      3.356322
  O       3.191894      5.773849      3.837731
  N       5.579742      4.306428      4.696240
  C       5.462161      5.036503      3.430999
  C       5.104191      4.057801      2.321272
  C       4.340954      6.048576      3.563194
  H       6.375908      5.573786      3.151267
  H       5.884404      3.290506      2.272400
  H       4.159574      3.570008      2.579935
  H       5.944505      4.929792      5.414569
  H       6.288905      3.585442      4.572597
  H       3.984354      7.890917      3.450361
27
Coordinates from ORCA-job 0_Cu_Cys2 E -3080.453229537975
  S       2.319114      2.375941     -1.446631
  O       1.066479      3.187687      2.116929
  O      -0.277085      1.884673      0.870540
  N       1.888566      0.063728      1.913981
  C       2.058307      1.281987      1.111068
  C       2.201878      0.914344     -0.356435
  C       0.822176      2.132765      1.317122
  H       2.932614      1.879915      1.411255
  H       3.091153      0.284402     -0.462729
  H       1.330828      0.328043     -0.654910
  H       1.940436      0.306923      2.903192
  H       2.698196     -0.532115      1.742189
  H       0.223798      3.666116      2.234821
  Cu      3.727999      3.591235     -0.392410
  S       5.017372      4.886442      0.715638
  O       4.814238      7.323808      3.333825
  O       3.198265      5.826014      3.775341
  N       5.544242      4.330853      4.718745
  C       5.463169      5.038257      3.437683
  C       5.102823      4.047380      2.340953
  C       4.360393      6.074403      3.533534
  H       6.391648      5.552645      3.163087
  H       5.866889      3.262880      2.317873
  H       4.143492      3.584896      2.590195
  H       5.908387      4.960374      5.431891
  H       6.239263      3.592193      4.622641
  H       4.048530      7.924535      3.407152
27
Coordinates from ORCA-job 0_Cu_Cys2 E -3080.453280034901
  S       2.280376      2.409805     -1.430194
  O       1.082085      3.156222      2.139060
  O      -0.280192      1.855044      0.911621
  N       1.905211      0.023191      1.882523
  C       2.060834      1.259091      1.104006
  C       2.184644      0.923309     -0.371955
  C       0.826036      2.104100      1.340137
  H       2.937758      1.852733      1.404894
  H       3.076693      0.302235     -0.504680
  H       1.312447      0.339258     -0.671431
  H       1.968923      0.243834      2.876325
  H       2.714335     -0.565983      1.686859
  H       0.240682      3.632688      2.271316
  Cu      3.720443      3.595533     -0.382416
  S       5.038717      4.867706      0.719539
  O       4.881228      7.349323      3.322814
  O       3.210401      5.902512      3.728360
  N       5.503610      4.355560      4.736654
  C       5.458351      5.046826      3.444445
  C       5.083996      4.050869      2.357898
  C       4.384655      6.115023      3.513560
  H       6.403858      5.531822      3.174449
  H       5.827279      3.246215      2.355310
  H       4.111108      3.615784      2.603105
  H       5.875657      4.985353      5.445389
  H       6.180009      3.597612      4.659509
  H       4.134026      7.974661      3.379441
27
Coordinates from ORCA-job 0_Cu_Cys2 E -3080.453358504725
  S       2.245797      2.452014     -1.405841
  O       1.106484      3.123034      2.168400
  O      -0.281441      1.831247      0.959815
  N       1.914434     -0.023375      1.844406
  C       2.062468      1.233099      1.098735
  C       2.165316      0.937011     -0.387114
  C       0.833328      2.076587      1.368434
  H       2.944447      1.816953      1.404010
  H       3.056036      0.321643     -0.551040
  H       1.289370      0.360087     -0.689543
  H       1.990496      0.167996      2.843340
  H       2.720073     -0.607801      1.622081
  H       0.269261      3.602254      2.316856
  Cu      3.720067      3.603750     -0.369462
  S       5.071519      4.847440      0.724246
  O       4.938532      7.371106      3.299364
  O       3.223447      5.970255      3.682908
  N       5.461522      4.385422      4.755156
  C       5.454399      5.056761      3.451762
  C       5.071585      4.054464      2.374723
  C       4.406567      6.151655      3.489896
  H       6.415389      5.514958      3.190002
  H       5.794251      3.231320      2.395286
  H       4.084875      3.646701      2.611424
  H       5.836212      5.017871      5.460148
  H       6.120882      3.610631      4.702162
  H       4.207855      8.017242      3.336384
27
Coordinates from ORCA-job 0_Cu_Cys2 E -3080.453426426160
  S       2.211499      2.497012     -1.382825
  O       1.137229      3.077485      2.212464
  O      -0.278638      1.806502      1.014296
  N       1.924883     -0.075264      1.795878
  C       2.066598      1.204156      1.089618
  C       2.144427      0.953282     -0.406286
  C       0.845083      2.044149      1.402359
  H       2.956095      1.774640      1.398539
  H       3.031909      0.342443     -0.601771
  H       1.263604      0.386322     -0.713474
  H       2.015054      0.082486      2.799389
  H       2.725107     -0.654683      1.543068
  H       0.304345      3.556158      2.385242
  Cu      3.717180      3.612450     -0.352336
  S       5.101581      4.825202      0.733577
  O       5.010623      7.395094      3.262187
  O       3.243683      6.057958      3.637768
  N       5.409182      4.421510      4.777756
  C       5.447073      5.068404      3.462460
  C       5.051045      4.059960      2.396356
  C       4.435170      6.197195      3.462752
  H       6.426970      5.490352      3.210264
  H       5.748033      3.215950      2.442192
  H       4.048719      3.686065      2.622792
  H       5.791554      5.054848      5.477822
  H       6.043975      3.625218      4.751110
  H       4.301187      8.065431      3.275341
27
Coordinates from ORCA-job 0_Cu_Cys2 E -3080.453511327361
  S       2.178782      2.544026     -1.354685
  O       1.165216      3.039288      2.250303
  O      -0.275811      1.782402      1.067141
  N       1.933169     -0.117661      1.752534
  C       2.069915      1.180852      1.082086
  C       2.125362      0.972754     -0.421921
  C       0.855947      2.015973      1.433816
  H       2.965962      1.739404      1.393892
  H       3.009166      0.367151     -0.648035
  H       1.239340      0.416021     -0.732929
  H       2.036522      0.010868      2.758963
  H       2.728073     -0.691850      1.472624
  H       0.336251      3.516031      2.445981
  Cu      3.718394      3.619787     -0.334391
  S       5.137846      4.797976      0.742462
  O       5.065059      7.410516      3.224279
  O       3.259598      6.123521      3.591747
  N       5.364035      4.454496      4.797713
  C       5.440664      5.077577      3.472505
  C       5.038751      4.061336      2.415955
  C       4.457047      6.230589      3.435513
  H       6.435064      5.470806      3.231072
  H       5.713784      3.201475      2.487996
  H       4.023475      3.716080      2.629696
  H       5.750128      5.090386      5.493438
  H       5.979496      3.642738      4.795623
  H       4.371939      8.097781      3.213163
27
Coordinates from ORCA-job 0_Cu_Cys2 E -3080.453585045291
  S       2.168596      2.617286     -1.307165
  O       1.254013      2.985930      2.345356
  O      -0.245121      1.799160      1.160589
  N       1.929763     -0.165998      1.696600
  C       2.086185      1.156020      1.081674
  C       2.101840      1.012680     -0.432994
  C       0.901276      1.999666      1.500197
  H       3.003645      1.677558      1.395156
  H       2.965907      0.397274     -0.704138
  H       1.197543      0.490149     -0.751044
  H       2.057455     -0.082530      2.705006
  H       2.702342     -0.747436      1.373545
  H       0.439950      3.468823      2.585574
  Cu      3.751183      3.646131     -0.317223
  S       5.217660      4.770361      0.745831
  O       5.101890      7.417083      3.155563
  O       3.256852      6.182768      3.506734
  N       5.272420      4.482688      4.811239
  C       5.414710      5.081926      3.480235
  C       5.032356      4.058220      2.422046
  C       4.460944      6.257342      3.382326
  H       6.427737      5.445918      3.273811
  H       5.681691      3.183203      2.534448
  H       3.999659      3.743094      2.597241
  H       5.651847      5.119521      5.509942
  H       5.866689      3.655873      4.843684
  H       4.424137      8.117613      3.102308
27
Coordinates from ORCA-job 0_Cu_Cys2 E -3080.453418966164
  S       2.063326      2.690636     -1.283433
  O       1.300429      2.976530      2.376971
  O      -0.219422      1.737944      1.272490
  N       2.016528     -0.175910      1.653248
  C       2.119898      1.164896      1.068054
  C       2.072127      1.063454     -0.449904
  C       0.936547      1.975789      1.553898
  H       3.040232      1.694712      1.357737
  H       2.936365      0.473577     -0.772935
  H       1.166780      0.531061     -0.748391
  H       2.188190     -0.118121      2.657072
  H       2.783425     -0.735178      1.280704
  H       0.487198      3.437563      2.659843
  Cu      3.704120      3.629729     -0.297778
  S       5.238377      4.673312      0.765617
  O       5.185865      7.397452      3.059381
  O       3.284843      6.262460      3.450764
  N       5.175610      4.515697      4.841327
  C       5.386224      5.064751      3.499124
  C       4.984780      4.026695      2.460213
  C       4.492521      6.278357      3.330134
  H       6.421413      5.374109      3.315340
  H       5.588645      3.125620      2.613711
  H       3.934594      3.763143      2.615623
  H       5.565938      5.154030      5.532890
  H       5.725463      3.661356      4.917641
  H       4.543155      8.126659      2.967199
27
Coordinates from ORCA-job 0_Cu_Cys2 E -3080.453676452954
  S       2.095087      2.693010     -1.256488
  O       1.337944      2.899757      2.428565
  O      -0.223121      1.766195      1.272179
  N       1.959345     -0.244033      1.605747
  C       2.096653      1.111216      1.054579
  C       2.039658      1.047012     -0.463494
  C       0.938787      1.942846      1.570703
  H       3.033803      1.606547      1.351201
  H       2.880056      0.434661     -0.806431
  H       1.113208      0.552983     -0.762786
  H       2.139523     -0.219422      2.609105
  H       2.706940     -0.815061      1.212081
  H       0.541205      3.382135      2.722047
  Cu      3.749705      3.635125     -0.289789
  S       5.291851      4.675911      0.761156
  O       5.217552      7.448795      3.115297
  O       3.297052      6.311116      3.376228
  N       5.158412      4.566169      4.842437
  C       5.395047      5.110233      3.501757
  C       5.011856      4.062654      2.465842
  C       4.508482      6.325631      3.317228
  H       6.433985      5.417713      3.334534
  H       5.615939      3.166314      2.642734
  H       3.961444      3.795944      2.610022
  H       5.538216      5.205277      5.538743
  H       5.704255      3.710399      4.930170
  H       4.580285      8.181198      3.013174
27
Coordinates from ORCA-job 0_Cu_Cys2 E -3080.453568259984
  S       2.121863      2.720153     -1.243960
  O       1.398622      2.933962      2.455234
  O      -0.192164      1.817070      1.325591
  N       1.962690     -0.208104      1.625053
  C       2.119394      1.143349      1.072572
  C       2.056208      1.077014     -0.445418
  C       0.976755      1.990639      1.593923
  H       3.064483      1.626301      1.365518
  H       2.890154      0.457007     -0.789922
  H       1.124099      0.588893     -0.736234
  H       2.147775     -0.183894      2.627479
  H       2.700827     -0.788813      1.228639
  H       0.609429      3.418945      2.763752
  Cu      3.777634      3.650117     -0.291274
  S       5.315180      4.674597      0.746467
  O       5.160184      7.411982      3.094075
  O       3.251564      6.249471      3.324848
  N       5.118150      4.520833      4.821186
  C       5.366806      5.079693      3.487884
  C       5.016855      4.036368      2.438185
  C       4.463114      6.282549      3.302888
  H       6.402757      5.405167      3.336968
  H       5.634976      3.149887      2.616762
  H       3.969136      3.751286      2.565415
  H       5.477358      5.160208      5.528030
  H       5.676671      3.673529      4.909569
  H       4.512650      8.132115      2.973307
27
Coordinates from ORCA-job 0_Cu_Cys2 E -3080.453706410255
  S       2.119126      2.697979     -1.266227
  O       1.372984      2.987924      2.408244
  O      -0.203514      1.832185      1.295646
  N       1.954760     -0.179321      1.653057
  C       2.110885      1.161659      1.076898
  C       2.056969      1.068518     -0.440727
  C       0.962449      2.016502      1.572898
  H       3.052749      1.651354      1.368369
  H       2.894156      0.445154     -0.771320
  H       1.127734      0.573277     -0.729420
  H       2.134042     -0.136515      2.656023
  H       2.696037     -0.766218      1.271821
  H       0.581159      3.481323      2.696661
  Cu      3.778351      3.638989     -0.309788
  S       5.322237      4.670151      0.743489
  O       5.085466      7.400741      3.106512
  O       3.225286      6.165799      3.365178
  N       5.166541      4.503237      4.821146
  C       5.382311      5.073390      3.487351
  C       5.059194      4.021169      2.437295
  C       4.434630      6.243237      3.311873
  H       6.404785      5.435866      3.329700
  H       5.706763      3.154189      2.607828
  H       4.022080      3.701553      2.569514
  H       5.509656      5.153003      5.526761
  H       5.754388      3.675230      4.903040
  H       4.411946      8.099950      3.004717
27
Coordinates from ORCA-job 0_Cu_Cys2 E -3080.453708829788
  S       2.087013      2.729898     -1.242476
  O       1.416220      2.964822      2.435553
  O      -0.184491      1.822674      1.344082
  N       1.978328     -0.202265      1.625836
  C       2.124151      1.149836      1.073278
  C       2.041637      1.085933     -0.444717
  C       0.986163      1.995545      1.607947
  H       3.071735      1.633494      1.355724
  H       2.873021      0.469587     -0.801783
  H       1.107685      0.594736     -0.725026
  H       2.178545     -0.179502      2.625450
  H       2.711205     -0.781668      1.217756
  H       0.631866      3.460815      2.738874
  Cu      3.767451      3.639929     -0.298351
  S       5.331565      4.639189      0.748724
  O       5.136313      7.403043      3.081097
  O       3.239548      6.223522      3.328583
  N       5.111118      4.523969      4.826491
  C       5.364564      5.073449      3.490406
  C       5.033182      4.017083      2.447164
  C       4.450917      6.265659      3.285600
  H       6.398564      5.407980      3.346812
  H       5.660395      3.139170      2.636246
  H       3.988163      3.720299      2.569625
  H       5.459601      5.172022      5.530970
  H       5.675103      3.681579      4.927056
  H       4.483606      8.119525      2.965618
27
Coordinates from ORCA-job 0_Cu_Cys2 E -3080.453764745678
  S       2.081975      2.737148     -1.238202
  O       1.420449      2.943371      2.446510
  O      -0.187371      1.809223      1.357072
  N       1.970206     -0.217161      1.607265
  C       2.119243      1.138886      1.065612
  C       2.032443      1.087375     -0.452799
  C       0.985606      1.984621      1.609265
  H       3.069164      1.616568      1.350046
  H       2.860042      0.470527     -0.817716
  H       1.095428      0.601993     -0.733306
  H       2.173750     -0.203351      2.606379
  H       2.699517     -0.796025      1.191999
  H       0.638271      3.436128      2.760591
  Cu      3.769418      3.643209     -0.294982
  S       5.339887      4.635154      0.758659
  O       5.151737      7.410939      3.071103
  O       3.248522      6.240105      3.312883
  N       5.107105      4.542539      4.836506
  C       5.368039      5.083197      3.498262
  C       5.036699      4.022384      2.459682
  C       4.460549      6.278220      3.282873
  H       6.403987      5.412661      3.357184
  H       5.661974      3.144266      2.654201
  H       3.990860      3.728163      2.581001
  H       5.455938      5.193006      5.538598
  H       5.666667      3.698046      4.944078
  H       4.503068      8.129132      2.943776
27
Coordinates from ORCA-job 0_Cu_Cys2 E -3080.453727835193
  S       2.113603      2.716135     -1.257176
  O       1.416029      3.028063      2.408130
  O      -0.182880      1.859086      1.343136
  N       1.967447     -0.158060      1.667038
  C       2.126510      1.182363      1.090525
  C       2.056169      1.089104     -0.426708
  C       0.988296      2.045362      1.595520
  H       3.073953      1.666176      1.373030
  H       2.887209      0.462309     -0.765885
  H       1.121552      0.595835     -0.701395
  H       2.159970     -0.117242      2.667583
  H       2.699803     -0.749661      1.275791
  H       0.630958      3.529532      2.700589
  Cu      3.790376      3.651263     -0.323850
  S       5.346305      4.658929      0.733815
  O       5.044771      7.375014      3.096025
  O       3.194780      6.119799      3.328101
  N       5.130763      4.475201      4.809068
  C       5.363502      5.052512      3.480842
  C       5.075720      3.999026      2.422655
  C       4.403723      6.210215      3.291559
  H       6.383461      5.430008      3.343658
  H       5.740909      3.146578      2.597971
  H       4.044600      3.656089      2.540937
  H       5.454004      5.126411      5.522621
  H       5.726568      3.653662      4.898354
  H       4.365068      8.066614      2.984604
27
Coordinates from ORCA-job 0_Cu_Cys2 E -3080.453763565102
  S       2.092684      2.721772     -1.247940
  O       1.412886      2.979763      2.423535
  O      -0.185439      1.819350      1.348429
  N       1.975604     -0.194334      1.636265
  C       2.125605      1.154906      1.078705
  C       2.047678      1.083251     -0.439382
  C       0.985700      2.004757      1.601473
  H       3.072024      1.639398      1.363257
  H       2.879973      0.465247     -0.791397
  H       1.114093      0.589411     -0.716528
  H       2.172863     -0.166990      2.636351
  H       2.708907     -0.776485      1.232884
  H       0.626964      3.474964      2.724236
  Cu      3.770863      3.653435     -0.313354
  S       5.327618      4.657511      0.746506
  O       5.126217      7.397537      3.084832
  O       3.233492      6.211521      3.334896
  N       5.112499      4.510065      4.822752
  C       5.363456      5.068711      3.489846
  C       5.038057      4.017900      2.439840
  C       4.444682      6.258041      3.292667
  H       6.395807      5.409217      3.348751
  H       5.674860      3.145034      2.620014
  H       3.996191      3.710733      2.562403
  H       5.459554      5.155025      5.530773
  H       5.679282      3.668850      4.917605
  H       4.471050      8.111735      2.969120
27
Coordinates from ORCA-job 0_Cu_Cys2 E -3080.453768695140
  S       2.086226      2.723795     -1.246687
  O       1.416130      2.988076      2.420947
  O      -0.181896      1.815331      1.358940
  N       1.986634     -0.191239      1.639803
  C       2.130710      1.158778      1.082136
  C       2.048530      1.086352     -0.435863
  C       0.989435      2.005726      1.607395
  H       3.076423      1.646116      1.363786
  H       2.881513      0.470234     -0.789614
  H       1.115499      0.589525     -0.709546
  H       2.187498     -0.163810      2.639160
  H       2.720096     -0.771226      1.233529
  H       0.629478      3.482417      2.721201
  Cu      3.768192      3.656698     -0.319136
  S       5.326946      4.654970      0.743887
  O       5.131545      7.393845      3.084330
  O       3.233408      6.215539      3.329767
  N       5.101771      4.503720      4.819997
  C       5.358363      5.063976      3.488872
  C       5.031550      4.015645      2.436538
  C       4.444878      6.257278      3.291344
  H       6.392418      5.400613      3.351046
  H       5.665034      3.140457      2.617216
  H       3.988421      3.711924      2.556605
  H       5.450570      5.145445      5.530067
  H       5.664304      3.659566      4.914185
  H       4.479494      8.110571      2.966638
27
Coordinates from ORCA-job 0_Cu_Cys2 E -3080.453749139946
  S       2.078837      2.715477     -1.250484
  O       1.408239      3.011370      2.406656
  O      -0.177080      1.798535      1.371253
  N       2.014317     -0.177590      1.659513
  C       2.143358      1.170573      1.093700
  C       2.060400      1.085916     -0.424028
  C       0.992462      2.009637      1.611209
  H       3.083593      1.670223      1.371116
  H       2.899455      0.475218     -0.772988
  H       1.132192      0.576691     -0.691321
  H       2.216851     -0.142238      2.658282
  H       2.753040     -0.752212      1.255139
  H       0.615337      3.499323      2.700951
  Cu      3.759393      3.669396     -0.340814
  S       5.311275      4.665283      0.732694
  O       5.151188      7.385336      3.094335
  O       3.237667      6.232136      3.339964
  N       5.082149      4.479655      4.807170
  C       5.346972      5.049998      3.481889
  C       5.007046      4.015376      2.419791
  C       4.449289      6.256751      3.294762
  H       6.385421      5.374284      3.347819
  H       5.629934      3.131067      2.593093
  H       3.960210      3.723992      2.537396
  H       5.441360      5.108478      5.523545
  H       5.631926      3.626117      4.891982
  H       4.508341      8.111530      2.983915
27
Coordinates from ORCA-job 0_Cu_Cys2 E -3080.453727769801
  S       2.085013      2.689669     -1.266250
  O       1.371867      3.043998      2.373078
  O      -0.184243      1.785122      1.348499
  N       2.032208     -0.152466      1.693765
  C       2.147830      1.187276      1.106571
  C       2.081165      1.075290     -0.410544
  C       0.979375      2.018132      1.596747
  H       3.077715      1.705470      1.384320
  H       2.931693      0.469652     -0.740124
  H       1.162382      0.548958     -0.677302
  H       2.224004     -0.097334      2.693790
  H       2.783175     -0.722869      1.306495
  H       0.568301      3.525646      2.648173
  Cu      3.749644      3.680303     -0.363953
  S       5.283769      4.691894      0.721636
  O       5.148983      7.375864      3.112950
  O       3.237834      6.223302      3.378963
  N       5.097948      4.445792      4.794073
  C       5.346765      5.036049      3.474449
  C       4.990890      4.018255      2.401055
  C       4.448673      6.246787      3.316680
  H       6.384068      5.360193      3.331748
  H       5.610310      3.128023      2.555875
  H       3.943367      3.731920      2.524567
  H       5.468853      5.062348      5.515150
  H       5.646403      3.589604      4.858138
  H       4.505179      8.103448      3.017991
27
Coordinates from ORCA-job 0_Cu_Cys2 E -3080.453733135165
  S       2.088573      2.679259     -1.272827
  O       1.357245      3.043127      2.366371
  O      -0.189626      1.779050      1.334071
  N       2.032096     -0.148853      1.700324
  C       2.145331      1.187799      1.105527
  C       2.086593      1.067853     -0.411206
  C       0.972046      2.016769      1.586994
  H       3.072238      1.710758      1.384526
  H       2.941140      0.464223     -0.733947
  H       1.171333      0.536961     -0.680963
  H       2.218170     -0.087160      2.701069
  H       2.787292     -0.718753      1.320556
  H       0.550742      3.521438      2.638658
  Cu      3.745062      3.677996     -0.365418
  S       5.272903      4.699101      0.719676
  O       5.154445      7.378934      3.122916
  O       3.243211      6.227446      3.392588
  N       5.108836      4.443369      4.792398
  C       5.350521      5.036838      3.472977
  C       4.984910      4.023106      2.398827
  C       4.453798      6.249795      3.324148
  H       6.387637      5.359030      3.324474
  H       5.599888      3.129003      2.548889
  H       3.936493      3.741862      2.526701
  H       5.484744      5.057271      5.513152
  H       5.656312      3.586186      4.851001
  H       4.511237      8.107920      3.035057
27
Coordinates from ORCA-job 0_Cu_Cys2 E -3080.453746941420
  S       2.090144      2.683084     -1.270461
  O       1.358993      3.020776      2.379770
  O      -0.192860      1.780194      1.326439
  N       2.020191     -0.160586      1.687270
  C       2.139067      1.177736      1.097242
  C       2.081858      1.065337     -0.419837
  C       0.969626      2.008484      1.584222
  H       3.068223      1.695485      1.379076
  H       2.935050      0.461444     -0.745501
  H       1.165600      0.538899     -0.694957
  H       2.204462     -0.103317      2.688591
  H       2.773911     -0.732051      1.306945
  H       0.554792      3.499222      2.658501
  Cu      3.746602      3.672718     -0.354402
  S       5.278149      4.693361      0.725364
  O       5.162010      7.387946      3.120670
  O       3.249844      6.237637      3.388241
  N       5.115304      4.460620      4.799070
  C       5.356029      5.046169      3.476053
  C       4.986405      4.027945      2.407757
  C       4.460633      6.259562      3.322076
  H       6.393444      5.365920      3.324138
  H       5.595872      3.131026      2.563358
  H       3.936430      3.752791      2.536750
  H       5.491070      5.078708      5.516325
  H       5.662710      3.603792      4.862762
  H       4.519614      8.117425      3.031077
27
Coordinates from ORCA-job 0_Cu_Cys2 E -3080.453740119928
  S       2.088197      2.675868     -1.274604
  O       1.346104      3.029783      2.369915
  O      -0.194656      1.770365      1.322699
  N       2.031293     -0.152277      1.698450
  C       2.142013      1.183650      1.101361
  C       2.089003      1.062657     -0.415212
  C       0.965636      2.008826      1.581176
  H       3.066926      1.709392      1.382239
  H       2.947028      0.462814     -0.735606
  H       1.176943      0.528585     -0.689620
  H       2.213113     -0.088349      2.699823
  H       2.789725     -0.720586      1.322786
  H       0.537874      3.504222      2.643806
  Cu      3.739889      3.676654     -0.361837
  S       5.267146      4.700603      0.720737
  O       5.169989      7.384700      3.127888
  O       3.253446      6.242180      3.397334
  N       5.114432      4.449734      4.793772
  C       5.354232      5.040521      3.472958
  C       4.976682      4.029080      2.400905
  C       4.464093      6.258816      3.327152
  H       6.392698      5.356131      3.319649
  H       5.581957      3.128339      2.550860
  H       3.925740      3.758530      2.531655
  H       5.495032      5.062532      5.513004
  H       5.657945      3.590035      4.851853
  H       4.530690      8.117517      3.043397
27
Coordinates from ORCA-job 0_Cu_Cys2 E -3080.453740790473
  S       2.085493      2.673442     -1.275681
  O       1.336685      3.032201      2.366196
  O      -0.196332      1.762990      1.319457
  N       2.038120     -0.148199      1.703756
  C       2.143458      1.186814      1.103553
  C       2.093748      1.061961     -0.412709
  C       0.962357      2.007370      1.579588
  H       3.065379      1.717588      1.384664
  H       2.955568      0.466175     -0.730440
  H       1.185056      0.522419     -0.687615
  H       2.217854     -0.080954      2.705298
  H       2.799926     -0.713839      1.330882
  H       0.525812      3.503516      2.637658
  Cu      3.734960      3.680777     -0.365532
  S       5.262187      4.703376      0.718651
  O       5.177110      7.382708      3.130272
  O       3.257029      6.246737      3.402163
  N       5.113718      4.444662      4.791143
  C       5.353427      5.037182      3.471144
  C       4.970067      4.029585      2.397590
  C       4.467584      6.259159      3.329446
  H       6.392794      5.349252      3.316714
  H       5.571118      3.125592      2.545179
  H       3.918006      3.763650      2.528980
  H       5.497021      5.054926      5.511082
  H       5.654647      3.583183      4.846945
  H       4.540379      8.118048      3.048157
27
Coordinates from ORCA-job 0_Cu_Cys2 E -3080.453729627412
  S       2.075413      2.672796     -1.274732
  O       1.317489      3.031738      2.362492
  O      -0.199961      1.744669      1.314876
  N       2.052531     -0.142863      1.710576
  C       2.146149      1.191624      1.106860
  C       2.102659      1.062535     -0.408925
  C       0.955473      2.001144      1.577732
  H       3.061792      1.732259      1.389347
  H       2.973140      0.477793     -0.723448
  H       1.201836      0.510875     -0.685730
  H       2.228137     -0.070925      2.712516
  H       2.821407     -0.701784      1.342075
  H       0.501424      3.495667      2.631020
  Cu      3.721958      3.690749     -0.370025
  S       5.254209      4.705272      0.715385
  O       5.197476      7.379080      3.132269
  O       3.267318      6.260979      3.406980
  N       5.109050      4.438430      4.787391
  C       5.351887      5.031135      3.468123
  C       4.955952      4.030385      2.392931
  C       4.477761      6.262167      3.331259
  H       6.393953      5.333391      3.312222
  H       5.546557      3.119037      2.537759
  H       3.901186      3.775809      2.525142
  H       5.497054      5.044753      5.508122
  H       5.643471      3.572823      4.841657
  H       4.567849      8.120788      3.052666
27
Coordinates from ORCA-job 0_Cu_Cys2 E -3080.453723845327
  S       2.067880      2.673313     -1.272539
  O       1.298916      3.026744      2.360982
  O      -0.204988      1.727420      1.308922
  N       2.061038     -0.142042      1.713089
  C       2.146302      1.193020      1.109127
  C       2.109959      1.063087     -0.406639
  C       0.947496      1.993053      1.575441
  H       3.056395      1.740924      1.395133
  H       2.987902      0.488098     -0.718317
  H       1.216076      0.501752     -0.686507
  H       2.231945     -0.068129      2.715711
  H       2.836065     -0.694770      1.348103
  H       0.478411      3.484363      2.626843
  Cu      3.710993      3.700565     -0.371382
  S       5.248647      4.707484      0.713687
  O       5.216687      7.377950      3.133132
  O       3.277942      6.275446      3.410466
  N       5.106932      4.436358      4.785425
  C       5.352317      5.028424      3.466315
  C       4.945937      4.032646      2.390631
  C       4.488192      6.266851      3.332540
  H       6.396582      5.322177      3.308791
  H       5.528448      3.115761      2.533470
  H       3.889110      3.787265      2.523946
  H       5.498665      5.040120      5.506303
  H       5.636314      3.567607      4.838971
  H       4.593005      8.124839      3.054896
27
Coordinates from ORCA-job 0_Cu_Cys2 E -3080.453731086658
  S       2.061634      2.678236     -1.267995
  O       1.285866      3.014995      2.363939
  O      -0.211043      1.714095      1.303714
  N       2.061069     -0.148553      1.706462
  C       2.142829      1.189066      1.107599
  C       2.111316      1.064658     -0.408702
  C       0.939871      1.982917      1.573753
  H       3.049960      1.739341      1.398443
  H       2.993510      0.496338     -0.720542
  H       1.221441      0.499170     -0.693021
  H       2.228767     -0.077410      2.709830
  H       2.839515     -0.696706      1.341828
  H       0.463155      3.468785      2.629640
  Cu      3.703692      3.705402     -0.365059
  S       5.249237      4.704258      0.716234
  O       5.231434      7.380704      3.129444
  O       3.287394      6.287954      3.408807
  N       5.108480      4.444069      4.788704
  C       5.355769      5.031289      3.467761
  C       4.943868      4.034746      2.395017
  C       4.497612      6.273470      3.331175
  H       6.401347      5.319469      3.308647
  H       5.522151      3.115471      2.539602
  H       3.885890      3.794739      2.529289
  H       5.501444      5.049334      5.507667
  H       5.635738      3.574211      4.845205
  H       4.611224      8.130275      3.049099
27
Coordinates from ORCA-job 0_Cu_Cys2 E -3080.453733537838
  S       2.058524      2.677292     -1.267389
  O       1.270589      3.010099      2.360331
  O      -0.216684      1.700641      1.296969
  N       2.062702     -0.150741      1.705747
  C       2.140414      1.187556      1.108079
  C       2.115483      1.063824     -0.408639
  C       0.932092      1.975791      1.569680
  H       3.043697      1.742030      1.402972
  H       3.002437      0.501120     -0.717197
  H       1.230257      0.492735     -0.696334
  H       2.226298     -0.079347      2.709781
  H       2.845210     -0.694791      1.343693
  H       0.444681      3.459626      2.623345
  Cu      3.695879      3.709392     -0.362500
  S       5.243796      4.706195      0.716374
  O       5.243763      7.382496      3.129895
  O       3.295710      6.298223      3.414761
  N       5.112335      4.445925      4.789354
  C       5.358637      5.032537      3.467884
  C       4.939445      4.037975      2.396017
  C       4.505627      6.278388      3.333694
  H       6.405093      5.315876      3.305873
  H       5.514092      3.116193      2.538877
  H       3.880634      3.802909      2.532660
  H       5.509452      5.049656      5.507352
  H       5.636651      3.574190      4.844296
  H       4.626360      8.134532      3.050963
27
Coordinates from ORCA-job 0_Cu_Cys2 E -3080.453737719078
  S       2.056125      2.677580     -1.266076
  O       1.258283      3.003469      2.356615
  O      -0.222537      1.687304      1.292509
  N       2.061247     -0.157139      1.700563
  C       2.136695      1.182961      1.107125
  C       2.116590      1.063037     -0.410346
  C       0.924854      1.967068      1.566410
  H       3.037383      1.739489      1.406251
  H       3.006465      0.503863     -0.717013
  H       1.234358      0.489038     -0.701547
  H       2.222287     -0.088244      2.705192
  H       2.846139     -0.697829      1.338654
  H       0.430090      3.450055      2.617512
  Cu      3.689570      3.711467     -0.357315
  S       5.239605      4.706834      0.718913
  O       5.255518      7.386240      3.127277
  O       3.304290      6.309962      3.420897
  N       5.117173      4.452343      4.792732
  C       5.362565      5.036682      3.470031
  C       4.937380      4.042062      2.400413
  C       4.513842      6.285256      3.335962
  H       6.409730      5.315694      3.305138
  H       5.509812      3.118885      2.542817
  H       3.878065      3.810812      2.539630
  H       5.519389      5.054920      5.508893
  H       5.637873      3.578373      4.846790
  H       4.640379      8.140142      3.048511
27
Coordinates from ORCA-job 0_Cu_Cys2 E -3080.453737989189
  S       2.055294      2.674365     -1.267679
  O       1.252657      3.002957      2.352029
  O      -0.224350      1.681165      1.289702
  N       2.062813     -0.157767      1.701327
  C       2.136130      1.181900      1.106855
  C       2.118197      1.060692     -0.410609
  C       0.922218      1.964049      1.563903
  H       3.035342      1.740649      1.406408
  H       3.009698      0.503086     -0.715460
  H       1.237703      0.484388     -0.702549
  H       2.222616     -0.087795      2.706068
  H       2.849096     -0.697261      1.340667
  H       0.423210      3.448221      2.611187
  Cu      3.685433      3.711703     -0.357165
  S       5.233431      4.709747      0.719419
  O       5.261826      7.387379      3.128024
  O       3.308701      6.316395      3.428110
  N       5.119747      4.452759      4.793241
  C       5.363563      5.037447      3.470435
  C       4.932927      4.044831      2.401071
  C       4.517904      6.288429      3.339279
  H       6.411098      5.313629      3.303201
  H       5.502715      3.119737      2.541630
  H       3.873171      3.816857      2.542439
  H       5.526271      5.053069      5.508874
  H       5.637322      3.576792      4.844973
  H       4.648438      8.142900      3.051159
27
Coordinates from ORCA-job 0_Cu_Cys2 E -3080.453744929870
  S       2.053785      2.670651     -1.269423
  O       1.243059      2.999679      2.346760
  O      -0.227359      1.669029      1.286545
  N       2.066713     -0.159934      1.701083
  C       2.135386      1.179675      1.106117
  C       2.119929      1.057670     -0.411386
  C       0.917821      1.957406      1.561003
  H       3.032067      1.742280      1.406222
  H       3.013559      0.502393     -0.714337
  H       1.241758      0.478339     -0.704384
  H       2.225241     -0.089166      2.705953
  H       2.855171     -0.696826      1.341311
  H       0.411430      3.442050      2.603926
  Cu      3.679447      3.712695     -0.356650
  S       5.224867      4.713423      0.720727
  O       5.275322      7.389499      3.128595
  O       3.317388      6.329874      3.437161
  N       5.121700      4.454912      4.794429
  C       5.364841      5.039021      3.471344
  C       4.924759      4.049726      2.402733
  C       4.526037      6.294971      3.343407
  H       6.413441      5.309117      3.300969
  H       5.488700      3.120768      2.541460
  H       3.863915      3.828607      2.546945
  H       5.535711      5.051188      5.509134
  H       5.632559      3.574847      4.843227
  H       4.665922      8.148430      3.053667
27
Coordinates from ORCA-job 0_Cu_Cys2 E -3080.453739714297
  S       2.053868      2.672361     -1.268962
  O       1.249898      3.000413      2.349717
  O      -0.224800      1.673456      1.290938
  N       2.067157     -0.159844      1.700049
  C       2.136745      1.179998      1.105709
  C       2.117727      1.058804     -0.411763
  C       0.921396      1.959476      1.563644
  H       3.035037      1.740934      1.404101
  H       3.009392      0.501574     -0.716910
  H       1.237607      0.481705     -0.703292
  H       2.228041     -0.089983      2.704603
  H       2.853840     -0.697935      1.338194
  H       0.419582      3.444176      2.608695
  Cu      3.681990      3.711430     -0.357048
  S       5.227747      4.711046      0.720937
  O       5.272574      7.388778      3.126989
  O       3.314886      6.328119      3.433282
  N       5.118061      4.455253      4.794659
  C       5.363191      5.038621      3.471643
  C       4.925792      4.048268      2.402933
  C       4.523699      6.293946      3.341408
  H       6.411882      5.309490      3.303045
  H       5.490362      3.119914      2.543250
  H       3.865003      3.826038      2.545758
  H       5.530931      5.051866      5.509729
  H       5.628709      3.575140      4.844735
  H       4.662854      8.147280      3.050496
27
Coordinates from ORCA-job 0_Cu_Cys2 E -3080.453738875269
  S       2.053961      2.675330     -1.267546
  O       1.257167      3.000018      2.354154
  O      -0.222512      1.679114      1.294671
  N       2.065768     -0.160395      1.698037
  C       2.137519      1.179999      1.105196
  C       2.115414      1.060613     -0.412306
  C       0.924783      1.961657      1.566320
  H       3.037619      1.738416      1.402770
  H       3.005109      0.501632     -0.719951
  H       1.233266      0.486118     -0.702794
  H       2.228484     -0.092034      2.702406
  H       2.850625     -0.699834      1.334244
  H       0.428453      3.445401      2.615429
  Cu      3.684970      3.710926     -0.356562
  S       5.232880      4.707605      0.721224
  O       5.268276      7.388231      3.125251
  O       3.311474      6.324616      3.427037
  N       5.114934      4.456336      4.795123
  C       5.361938      5.038562      3.471922
  C       4.928857      4.046134      2.403393
  C       4.520585      6.292342      3.338446
  H       6.410511      5.311212      3.305382
  H       5.495155      3.119163      2.545938
  H       3.868301      3.821619      2.544344
  H       5.525013      5.054620      5.510394
  H       5.627051      3.577213      4.847454
  H       4.657569      8.145710      3.046564
27
Coordinates from ORCA-job 0_Cu_Cys2 E -3080.453749447911
  S       2.055091      2.676023     -1.267540
  O       1.261086      3.001424      2.355869
  O      -0.221209      1.684109      1.295496
  N       2.064395     -0.159178      1.698545
  C       2.137924      1.180953      1.105261
  C       2.114796      1.061266     -0.412151
  C       0.926628      1.964428      1.567093
  H       3.039012      1.738023      1.402299
  H       3.003493      0.501051     -0.720388
  H       1.231584      0.488086     -0.701995
  H       2.227576     -0.090707      2.702839
  H       2.848354     -0.699846      1.334642
  H       0.433261      3.447943      2.618017
  Cu      3.686953      3.710649     -0.356781
  S       5.235574      4.706528      0.720883
  O       5.262970      7.387420      3.125339
  O       3.308098      6.319449      3.424129
  N       5.114567      4.455361      4.794679
  C       5.361400      5.037925      3.471591
  C       4.931545      4.044436      2.402808
  C       4.517396      6.289835      3.337214
  H       6.409504      5.312925      3.305921
  H       5.499843      3.118774      2.545923
  H       3.871402      3.817459      2.542888
  H       5.522385      5.054871      5.510208
  H       5.628830      3.577538      4.847738
  H       4.650713      8.143579      3.046012
