28
Coordinates from ORCA-job 1_Cu2_Cys2 E -4720.088265301916
  Cu     -1.149967     -0.514606     -0.706152
  Cu      1.314271     -0.385123      0.389142
  S       3.846431     -0.245056      1.590513
  O       7.382776      1.188154      3.849825
  O       5.754427     -0.391139      3.849983
  N       7.907807      0.155380      1.284511
  C       6.539485      0.442250      1.719715
  C       5.564780     -0.535844      1.061232
  C       6.512356      0.348845      3.233796
  H       6.275139      1.469483      1.440527
  H       5.600791     -0.432814     -0.028810
  H       5.816954     -1.573784      1.307180
  H       8.537713      0.871152      1.645593
  H       7.962662      0.216844      0.268524
  H       7.331114      1.116492      4.826759
  S      -3.449943     -0.548807     -1.566042
  O      -7.219563      1.761281     -1.222860
  O      -5.443843      1.388800     -2.584391
  N      -7.510739     -1.032286     -1.408100
  C      -6.201197     -0.421635     -1.171014
  C      -5.102261     -1.277305     -1.803852
  C      -6.240216      0.981545     -1.746744
  H      -6.027073     -0.338308     -0.091306
  H      -5.094116     -2.277446     -1.356914
  H      -5.261567     -1.394478     -2.881950
  H      -8.226069     -0.513648     -0.899369
  H      -7.520857     -1.977143     -1.025791
  H      -7.209657      2.665745     -1.602404
28
Coordinates from ORCA-job 1_Cu2_Cys2 E -4720.104361224445
  Cu     -1.114214     -0.433201     -0.684557
  Cu      1.304307     -0.328740      0.457484
  S       3.755470     -0.210446      1.710268
  O       7.566076      1.181141      3.740754
  O       5.998035     -0.407248      4.005415
  N       7.837692      0.088182      1.237919
  C       6.503547      0.408671      1.767843
  C       5.473679     -0.541734      1.168293
  C       6.628423      0.331996      3.277554
  H       6.229262      1.439885      1.502696
  H       5.494187     -0.431922      0.080549
  H       5.725743     -1.577781      1.409293
  H       8.504162      0.792798      1.546250
  H       7.813599      0.148269      0.222473
  H       7.635654      1.107536      4.709667
  S      -3.371940     -0.418372     -1.592105
  O      -7.402057      1.641484     -1.240476
  O      -5.717026      1.482582     -2.719509
  N      -7.429528     -1.097014     -1.418009
  C      -6.163185     -0.378670     -1.212464
  C      -5.020773     -1.178803     -1.827184
  C      -6.366687      0.999120     -1.814807
  H      -5.969199     -0.253917     -0.137289
  H      -4.990924     -2.163303     -1.352618
  H      -5.186024     -1.320924     -2.897795
  H      -8.174025     -0.625045     -0.909458
  H      -7.353633     -2.025705     -1.009199
  H      -7.520982      2.517714     -1.649386
28
Coordinates from ORCA-job 1_Cu2_Cys2 E -4720.117157095959
  Cu     -1.056903     -0.342216     -0.677829
  Cu      1.292890     -0.261186      0.504614
  S       3.609340     -0.157498      1.807030
  O       7.544827      1.159513      3.627786
  O       6.023630     -0.421662      4.050338
  N       7.680680      0.020548      1.171882
  C       6.376014      0.381650      1.767022
  C       5.307898     -0.535693      1.217981
  C       6.584442      0.298227      3.263501
  H       6.093766      1.417858      1.522690
  H       5.315504     -0.411494      0.132348
  H       5.565245     -1.570899      1.448212
  H       8.376984      0.708986      1.443164
  H       7.597229      0.087154      0.160469
  H       7.668949      1.079421      4.587295
  S      -3.248767     -0.258481     -1.628963
  O      -7.377962      1.550978     -1.212445
  O      -5.783751      1.504515     -2.778841
  N      -7.262521     -1.154176     -1.377656
  C      -6.033136     -0.351726     -1.207290
  C      -4.870733     -1.096333     -1.820615
  C      -6.338311      0.986841     -1.842423
  H      -5.805893     -0.178590     -0.143352
  H      -4.808072     -2.061500     -1.312730
  H      -5.063323     -1.270841     -2.879349
  H      -8.023166     -0.717105     -0.864979
  H      -7.113174     -2.061125     -0.942481
  H      -7.562047      2.401384     -1.643778
28
Coordinates from ORCA-job 1_Cu2_Cys2 E -4720.134600307651
  Cu     -0.965847     -0.202302     -0.662656
  Cu      1.263893     -0.152680      0.586836
  S       3.366062     -0.069019      1.956120
  O       7.473095      1.078619      3.491585
  O       6.011627     -0.511968      4.050221
  N       7.382881     -0.043947      1.043979
  C       6.140150      0.352549      1.751904
  C       5.010535     -0.516038      1.268252
  C       6.472810      0.224699      3.222054
  H       5.857974      1.400533      1.563688
  H       4.978200     -0.368421      0.185234
  H       5.261390     -1.558501      1.470494
  H       8.119459      0.617844      1.269412
  H       7.207542      0.055908      0.046546
  H       7.681565      0.952979      4.432732
  S      -3.037668     -0.007615     -1.687478
  O      -7.304552      1.441115     -1.208001
  O      -5.851244      1.449508     -2.902092
  N      -6.942453     -1.231593     -1.248692
  C      -5.789892     -0.300663     -1.179120
  C      -4.594166     -0.976415     -1.793096
  C      -6.255696      0.951632     -1.887348
  H      -5.524589     -0.023896     -0.146150
  H      -4.461975     -1.904745     -1.231079
  H      -4.815531     -1.217999     -2.832378
  H      -7.720213     -0.836125     -0.728645
  H      -6.675737     -2.081938     -0.757459
  H      -7.597983      2.225032     -1.703259
28
Coordinates from ORCA-job 1_Cu2_Cys2 E -4720.154760298595
  Cu     -0.861848     -0.019310     -0.659531
  Cu      1.169914     -0.004907      0.680064
  S       2.995757      0.062171      2.160285
  O       7.277297      0.930822      3.316169
  O       5.875210     -0.685609      3.957966
  N       6.881374     -0.101475      0.839911
  C       5.747031      0.319714      1.704293
  C       4.528690     -0.472041      1.308543
  C       6.237552      0.091041      3.118723
  H       5.488314      1.386077      1.615422
  H       4.421068     -0.281639      0.235869
  H       4.751949     -1.530455      1.454649
  H       7.669915      0.515558      1.010858
  H       6.589528      0.069216     -0.120672
  H       7.577746      0.724964      4.219762
  S      -2.722383      0.336437     -1.788313
  O      -7.089073      1.313778     -1.198133
  O      -5.810598      1.262243     -3.031784
  N      -6.401867     -1.308579     -1.008081
  C      -5.382218     -0.232343     -1.114370
  C      -4.142576     -0.820105     -1.733196
  C      -6.051672      0.853220     -1.929974
  H      -5.091455      0.209428     -0.148307
  H      -3.891686     -1.671819     -1.093474
  H      -4.389430     -1.180762     -2.731608
  H      -7.195659     -0.956413     -0.480470
  H      -5.986347     -2.045003     -0.440488
  H      -7.504894      1.982343     -1.772513
28
Coordinates from ORCA-job 1_Cu2_Cys2 E -4720.163277958535
  Cu     -0.765370      0.201868     -0.711223
  Cu      1.055808      0.201466      0.723127
  S       2.613811      0.274529      2.274898
  O       6.986140      0.751861      3.174458
  O       5.545689     -0.851780      3.794843
  N       6.346638     -0.182335      0.658541
  C       5.320265      0.291761      1.619957
  C       4.012235     -0.403383      1.315961
  C       5.885888     -0.025601      2.988001
  H       5.138301      1.375724      1.589537
  H       3.843142     -0.220202      0.248809
  H       4.157774     -1.476775      1.462474
  H       7.189743      0.373780      0.779948
  H       5.991603      0.039970     -0.270776
  H       7.336513      0.464161      4.039047
  S      -2.416170      0.669472     -1.931148
  O      -6.809324      1.173082     -1.131011
  O      -5.698151      0.960656     -3.068703
  N      -5.768516     -1.345196     -0.714749
  C      -4.916420     -0.170313     -1.023475
  C      -3.654424     -0.653455     -1.702061
  C      -5.777749      0.720713     -1.891826
  H      -4.619885      0.418862     -0.143059
  H      -3.253898     -1.423799     -1.034370
  H      -3.923337     -1.114823     -2.654059
  H      -6.558928     -1.036711     -0.153103
  H      -5.213211     -1.952712     -0.113541
  H      -7.358529      1.685732     -1.754898
28
Coordinates from ORCA-job 1_Cu2_Cys2 E -4720.166983531382
  Cu     -0.771150      0.361880     -0.727662
  Cu      1.042462      0.376569      0.727648
  S       2.625709      0.467675      2.262301
  O       6.967255      0.742562      3.203858
  O       5.488779     -0.853732      3.774326
  N       6.306329     -0.283166      0.642163
  C       5.323371      0.268883      1.598460
  C       3.970203     -0.370828      1.353244
  C       5.877823     -0.037819      2.972165
  H       5.205837      1.359499      1.530597
  H       3.789253     -0.284944      0.275239
  H       4.038692     -1.433607      1.601915
  H       7.179079      0.233326      0.731289
  H       5.954793     -0.081686     -0.293265
  H       7.304092      0.470863      4.079439
  S      -2.460013      0.795014     -1.945267
  O      -6.799558      1.170986     -1.079908
  O      -5.763115      0.871154     -3.053850
  N      -5.669424     -1.412642     -0.691801
  C      -4.894908     -0.198357     -1.024553
  C      -3.629809     -0.595751     -1.760737
  C      -5.819294      0.653010     -1.866514
  H      -4.607314      0.397620     -0.146085
  H      -3.167635     -1.388068     -1.161224
  H      -3.899745     -1.011160     -2.734663
  H      -6.455410     -1.149885     -0.100111
  H      -5.067835     -2.000059     -0.115085
  H      -7.378828      1.679215     -1.680321
28
Coordinates from ORCA-job 1_Cu2_Cys2 E -4720.168975339380
  Cu     -0.765036      0.675353     -0.770978
  Cu      1.028330      0.714425      0.726467
  S       2.634352      0.805152      2.216794
  O       6.920433      0.737179      3.159878
  O       5.309238     -0.701834      3.794104
  N       6.180131     -0.557293      0.681094
  C       5.273515      0.214788      1.544141
  C       3.848876     -0.299269      1.409804
  C       5.782740      0.033461      2.954427
  H       5.290098      1.290457      1.323303
  H       3.621896     -0.377336      0.340031
  H       3.790468     -1.305971      1.831131
  H       7.106270     -0.133368      0.704405
  H       5.856157     -0.460001     -0.279801
  H       7.244313      0.524588      4.054708
  S      -2.511631      1.036782     -1.991360
  O      -6.754675      1.061570     -0.896902
  O      -5.835276      0.812456     -2.936189
  N      -5.458478     -1.516598     -0.738442
  C      -4.783366     -0.239465     -1.015021
  C      -3.545956     -0.465459     -1.868667
  C      -5.790928      0.622085     -1.739244
  H      -4.491281      0.292913     -0.098830
  H      -2.967483     -1.274503     -1.408773
  H      -3.848351     -0.799332     -2.864003
  H      -6.222156     -1.355577     -0.082980
  H      -4.798371     -2.119668     -0.249215
  H      -7.424191      1.531016     -1.428284
28
Coordinates from ORCA-job 1_Cu2_Cys2 E -4720.169784810843
  Cu     -0.758774      0.995147     -0.885604
  Cu      0.992223      1.063611      0.656472
  S       2.568226      1.156100      2.124939
  O       6.802813      0.792350      2.962228
  O       5.106393     -0.362199      3.876019
  N       5.845908     -0.931923      0.801589
  C       5.079379      0.112148      1.494898
  C       3.596933     -0.219986      1.487674
  C       5.620843      0.150334      2.906735
  H       5.228006      1.107289      1.054094
  H       3.304607     -0.452857      0.457514
  H       3.427642     -1.119249      2.082870
  H       6.818823     -0.640448      0.725368
  H       5.502774     -0.995248     -0.154808
  H       7.139317      0.731567      3.873742
  S      -2.520295      1.288926     -2.117467
  O      -6.486755      0.910912     -0.491981
  O      -5.874976      0.909826     -2.653566
  N      -5.093757     -1.650965     -0.865804
  C      -4.532476     -0.303968     -1.032771
  C      -3.396558     -0.315573     -2.041586
  C      -5.675452      0.565111     -1.509272
  H      -4.162903      0.118796     -0.087392
  H      -2.694395     -1.105043     -1.752310
  H      -3.789779     -0.574845     -3.025765
  H      -5.778761     -1.637785     -0.111671
  H      -4.347411     -2.265926     -0.546190
  H      -7.231958      1.420451     -0.856355
28
Coordinates from ORCA-job 1_Cu2_Cys2 E -4720.170751201132
  Cu     -0.792325      1.311173     -1.128382
  Cu      0.927259      1.424786      0.452223
  S       2.504627      1.511820      1.929498
  O       6.621598      0.800705      2.742951
  O       4.871611      0.009142      3.905435
  N       5.373222     -1.281581      1.030484
  C       4.798011     -0.003869      1.474139
  C       3.286959     -0.101121      1.542245
  C       5.397147      0.259716      2.842733
  H       5.073857      0.833225      0.818333
  H       2.920727     -0.468086      0.576295
  H       3.006140     -0.838030      2.297366
  H       6.374270     -1.167499      0.882761
  H       4.984768     -1.505776      0.116137
  H       6.988433      0.898067      3.640576
  S      -2.569409      1.510579     -2.373715
  O      -5.931569      0.725006      0.065380
  O      -5.926523      0.923070     -2.171526
  N      -4.641195     -1.746031     -0.990765
  C      -4.170175     -0.356811     -1.078465
  C      -3.294642     -0.166511     -2.301334
  C      -5.420078      0.498566     -1.155428
  H      -3.602511     -0.046757     -0.188515
  H      -2.493755     -0.913585     -2.266495
  H      -3.880027     -0.358155     -3.202027
  H      -5.131651     -1.879519     -0.107834
  H      -3.825097     -2.354270     -0.943997
  H      -6.760035      1.228296     -0.036473
28
Coordinates from ORCA-job 1_Cu2_Cys2 E -4720.171675431238
  Cu     -0.850117      1.508945     -1.306241
  Cu      0.820564      1.656150      0.329217
  S       2.390366      1.697201      1.852648
  O       6.427036      0.760497      2.551725
  O       4.719480      0.159307      3.881759
  N       4.936878     -1.435611      1.160903
  C       4.502599     -0.060325      1.461663
  C       2.997602     -0.011946      1.579493
  C       5.184828      0.304033      2.771424
  H       4.821102      0.663012      0.699067
  H       2.569265     -0.415746      0.653489
  H       2.676105     -0.656930      2.401577
  H       5.935779     -1.437954      0.962820
  H       4.483693     -1.728819      0.296113
  H       6.853572      0.909488      3.417820
  S      -2.616351      1.620967     -2.586109
  O      -5.328759      0.639540      0.409340
  O      -5.850522      0.831261     -1.768395
  N      -4.249736     -1.786510     -1.021434
  C      -3.836783     -0.375496     -1.109951
  C      -3.212739     -0.099447     -2.457954
  C      -5.102541      0.438193     -0.898469
  H      -3.112044     -0.091835     -0.330452
  H      -2.373991     -0.793713     -2.586843
  H      -3.937174     -0.302014     -3.250073
  H      -4.553560     -1.988572     -0.069903
  H      -3.423565     -2.365211     -1.173503
  H      -6.181350      1.108086      0.501870
28
Coordinates from ORCA-job 1_Cu2_Cys2 E -4720.172095629749
  Cu     -0.895647      1.587501     -1.407871
  Cu      0.670334      1.751105      0.330861
  S       2.175109      1.712106      1.929901
  O       6.161886      0.804976      2.410110
  O       4.561222      0.124735      3.834003
  N       4.606366     -1.482710      1.139015
  C       4.213473     -0.091190      1.430409
  C       2.718964     -0.012057      1.617425
  C       4.960477      0.283678      2.700352
  H       4.505929      0.611514      0.639262
  H       2.242480     -0.394983      0.705227
  H       2.418031     -0.656281      2.448593
  H       5.592173     -1.508629      0.883277
  H       4.098317     -1.783548      0.307669
  H       6.628985      0.971250      3.251918
  S      -2.601808      1.627470     -2.780601
  O      -4.729272      0.711645      0.591351
  O      -5.680852      0.713554     -1.446289
  N      -3.906400     -1.788257     -0.955642
  C      -3.524975     -0.373186     -1.119887
  C      -3.121959     -0.106957     -2.550207
  C      -4.749219      0.433002     -0.722162
  H      -2.686460     -0.074504     -0.469002
  H      -2.290106     -0.780570     -2.789329
  H      -3.950576     -0.340305     -3.223929
  H      -4.046059     -1.985686      0.035229
  H      -3.108779     -2.359483     -1.237279
  H      -5.571993      1.152360      0.819197
28
Coordinates from ORCA-job 1_Cu2_Cys2 E -4720.172591854178
  Cu     -0.927621      1.677123     -1.429214
  Cu      0.590029      1.844281      0.363029
  S       2.060659      1.745971      1.993393
  O       6.018736      0.833846      2.261837
  O       4.533933      0.119845      3.789401
  N       4.383401     -1.518946      1.155445
  C       4.028627     -0.111924      1.419875
  C       2.547494      0.002760      1.688249
  C       4.847853      0.294745      2.632211
  H       4.286911      0.557279      0.589003
  H       2.013417     -0.387129      0.810950
  H       2.278647     -0.616617      2.548097
  H       5.350179     -1.569564      0.837376
  H       3.819079     -1.839263      0.368964
  H       6.537387      1.009120      3.069785
  S      -2.614399      1.650033     -2.843299
  O      -4.356427      0.735619      0.667134
  O      -5.531222      0.663381     -1.249506
  N      -3.715297     -1.813585     -0.961561
  C      -3.345365     -0.397376     -1.136931
  C      -3.069888     -0.103959     -2.594151
  C      -4.524195      0.407412     -0.624256
  H      -2.452273     -0.110390     -0.557023
  H      -2.245986     -0.754536     -2.912312
  H      -3.946579     -0.350354     -3.198606
  H      -3.761441     -2.026957      0.035381
  H      -2.947308     -2.380092     -1.323770
  H      -5.168713      1.185828      0.972098
28
Coordinates from ORCA-job 1_Cu2_Cys2 E -4720.172908419862
  Cu     -0.932670      1.722436     -1.418552
  Cu      0.556874      1.891248      0.394702
  S       1.999139      1.784692      2.047298
  O       5.942237      0.842944      2.119299
  O       4.553309      0.148056      3.744013
  N       4.225314     -1.543924      1.182292
  C       3.904233     -0.124852      1.418866
  C       2.440995      0.025738      1.771503
  C       4.791714      0.313157      2.567426
  H       4.124235      0.512337      0.552792
  H       1.849972     -0.383116      0.940200
  H       2.213749     -0.562324      2.664758
  H       5.169810     -1.617805      0.806204
  H       3.609655     -1.882256      0.443116
  H       6.506244      1.031790      2.892609
  S      -2.599946      1.676478     -2.854187
  O      -4.137194      0.725080      0.707249
  O      -5.421721      0.641604     -1.138631
  N      -3.603389     -1.836938     -0.994896
  C      -3.236658     -0.419330     -1.152742
  C      -3.030287     -0.088040     -2.616772
  C      -4.382600      0.380576     -0.569823
  H      -2.317588     -0.149216     -0.606177
  H      -2.219610     -0.725927     -2.989573
  H      -3.933408     -0.329917     -3.183411
  H      -3.600217     -2.074009     -0.001695
  H      -2.854960     -2.395691     -1.407398
  H      -4.927595      1.183760      1.053132
28
Coordinates from ORCA-job 1_Cu2_Cys2 E -4720.173667608422
  Cu     -0.890666      1.747876     -1.375824
  Cu      0.590426      1.906626      0.448629
  S       2.015345      1.815057      2.117602
  O       5.943907      0.894555      1.965526
  O       4.680410      0.246582      3.708595
  N       4.177587     -1.569353      1.266697
  C       3.877718     -0.139665      1.453870
  C       2.439018      0.046082      1.903560
  C       4.833039      0.356660      2.512826
  H       4.039288      0.454873      0.545356
  H       1.795628     -0.401866      1.132521
  H       2.274201     -0.502654      2.834656
  H       5.090379     -1.663982      0.822579
  H       3.506785     -1.936428      0.591478
  H       6.540266      1.135186      2.697762
  S      -2.540108      1.703270     -2.828412
  O      -4.031331      0.658226      0.729232
  O      -5.369545      0.700897     -1.079348
  N      -3.688742     -1.867853     -1.125744
  C      -3.246769     -0.466795     -1.197907
  C      -3.039381     -0.056560     -2.649073
  C      -4.328642      0.365559     -0.556072
  H      -2.311682     -0.280686     -0.642743
  H      -2.263545     -0.710455     -3.064467
  H      -3.960753     -0.240834     -3.208608
  H      -3.683569     -2.165197     -0.147988
  H      -2.972260     -2.435041     -1.582216
  H      -4.787365      1.152471      1.099112
28
Coordinates from ORCA-job 1_Cu2_Cys2 E -4720.173745660197
  Cu     -0.889741      1.765541     -1.357229
  Cu      0.545413      1.923536      0.497275
  S       1.928765      1.820173      2.190221
  O       5.814899      0.920084      1.835316
  O       4.668758      0.237449      3.645227
  N       4.019489     -1.582530      1.252833
  C       3.737236     -0.150418      1.440883
  C       2.326658      0.047338      1.967583
  C       4.748950      0.356312      2.442629
  H       3.849445      0.433561      0.518095
  H       1.638245     -0.403141      1.237532
  H       2.210412     -0.492266      2.911270
  H       4.903837     -1.686187      0.756009
  H       3.308651     -1.954292      0.622323
  H       6.448269      1.169998      2.533225
  S      -2.504057      1.707619     -2.843369
  O      -3.796755      0.682923      0.751477
  O      -5.244841      0.668807     -0.970813
  N      -3.557836     -1.874256     -1.117648
  C      -3.118067     -0.473690     -1.201151
  C      -2.978629     -0.055417     -2.657412
  C      -4.166396      0.362139     -0.508023
  H      -2.157569     -0.292201     -0.689018
  H      -2.216432     -0.699818     -3.111537
  H      -3.922888     -0.243064     -3.176349
  H      -3.505704     -2.178672     -0.143481
  H      -2.864866     -2.439445     -1.611115
  H      -4.535607      1.176468      1.156847
28
Coordinates from ORCA-job 1_Cu2_Cys2 E -4720.174165486094
  Cu     -0.831250      1.733477     -1.263996
  Cu      0.520408      1.870174      0.650707
  S       1.836217      1.745673      2.389527
  O       5.658843      1.038644      1.622382
  O       4.793286      0.231899      3.533192
  N       3.922863     -1.579347      1.225982
  C       3.616006     -0.158069      1.445833
  C       2.266273     -0.012004      2.121455
  C       4.713135      0.393284      2.334360
  H       3.600487      0.426398      0.516104
  H       1.519461     -0.487840      1.468054
  H       2.271230     -0.553419      3.071341
  H       4.746334     -1.654942      0.629252
  H       3.157139     -1.978382      0.681649
  H       6.356949      1.313557      2.247243
  S      -2.372059      1.681977     -2.821774
  O      -3.670046      0.734393      0.725266
  O      -5.138356      0.711025     -0.979001
  N      -3.528983     -1.871373     -1.144836
  C      -3.039490     -0.486616     -1.210994
  C      -2.880522     -0.066014     -2.660672
  C      -4.061462      0.389860     -0.519292
  H      -2.073538     -0.344031     -0.695279
  H      -2.128179     -0.721918     -3.115621
  H      -3.826478     -0.225844     -3.185868
  H      -3.491285     -2.189920     -0.174881
  H      -2.855959     -2.456266     -1.642083
  H      -4.391388      1.262178      1.123550
28
Coordinates from ORCA-job 1_Cu2_Cys2 E -4720.174588624740
  Cu     -0.790224      1.788939     -1.212426
  Cu      0.545855      1.921363      0.715502
  S       1.843735      1.792784      2.470749
  O       5.549157      1.045539      1.420462
  O       4.865886      0.281207      3.420925
  N       3.787708     -1.611639      1.285591
  C       3.512678     -0.178118      1.460869
  C       2.226440      0.019039      2.241342
  C       4.680630      0.405706      2.229158
  H       3.422751      0.362218      0.508742
  H       1.420904     -0.472004      1.674490
  H       2.304929     -0.482273      3.209967
  H       4.555250     -1.726737      0.623735
  H       2.974097     -2.026753      0.829796
  H       6.293226      1.349097      1.974860
  S      -2.313464      1.723088     -2.786719
  O      -3.561547      0.673438      0.745483
  O      -5.064389      0.674795     -0.928855
  N      -3.462048     -1.885350     -1.213842
  C      -2.965706     -0.502320     -1.232448
  C      -2.822638     -0.028694     -2.669368
  C      -3.974737      0.354214     -0.498655
  H      -1.993240     -0.384937     -0.722196
  H      -2.079197     -0.670192     -3.157823
  H      -3.776873     -0.169206     -3.185289
  H      -3.413301     -2.242727     -0.257600
  H      -2.798904     -2.453588     -1.742994
  H      -4.277341      1.189660      1.168142
28
Coordinates from ORCA-job 1_Cu2_Cys2 E -4720.174897189092
  Cu     -0.756260      1.830551     -1.163291
  Cu      0.573837      1.960932      0.767331
  S       1.859548      1.838885      2.526769
  O       5.459032      1.024913      1.253745
  O       4.925719      0.315116      3.318188
  N       3.675825     -1.631857      1.336474
  C       3.430470     -0.188776      1.473987
  C       2.201278      0.053067      2.328319
  C       4.653449      0.409310      2.140575
  H       3.281468      0.318035      0.510281
  H       1.354881     -0.442099      1.828470
  H       2.334606     -0.420380      3.304958
  H       4.395359     -1.783520      0.629622
  H       2.827925     -2.051215      0.952384
  H       6.241302      1.341919      1.744437
  S      -2.267580      1.759105     -2.743851
  O      -3.514175      0.611487      0.762207
  O      -5.016838      0.642368     -0.910940
  N      -3.394520     -1.894974     -1.266629
  C      -2.907000     -0.508457     -1.243731
  C      -2.765286      0.003287     -2.666728
  C      -3.925243      0.319504     -0.487794
  H      -1.935422     -0.398435     -0.729629
  H      -2.017458     -0.621268     -3.170075
  H      -3.718853     -0.130012     -3.185472
  H      -3.344725     -2.281065     -0.321808
  H      -2.727398     -2.442434     -1.812261
  H      -4.234304      1.112562      1.196062
28
Coordinates from ORCA-job 1_Cu2_Cys2 E -4720.175259108607
  Cu     -0.702215      1.891192     -1.096344
  Cu      0.622092      2.023263      0.839078
  S       1.896775      1.914622      2.606938
  O       5.303910      0.988406      1.015314
  O       5.004488      0.353926      3.149974
  N       3.518349     -1.653907      1.424266
  C       3.311779     -0.200368      1.502987
  C       2.179265      0.112808      2.460764
  C       4.603800      0.409447      2.007374
  H       3.071856      0.257883      0.532153
  H       1.278002     -0.382073      2.067863
  H       2.395902     -0.318492      3.442180
  H       4.158787     -1.861406      0.657849
  H       2.627888     -2.074136      1.153065
  H       6.136443      1.318566      1.402722
  S      -2.195977      1.809939     -2.688775
  O      -3.419331      0.500256      0.788174
  O      -4.935612      0.602673     -0.869068
  N      -3.313450     -1.906681     -1.354494
  C      -2.824956     -0.522348     -1.270144
  C      -2.693508      0.052038     -2.670372
  C      -3.839817      0.266068     -0.468594
  H      -1.849096     -0.435614     -0.759335
  H      -1.949798     -0.551316     -3.204238
  H      -3.651083     -0.060569     -3.186405
  H      -3.256358     -2.338560     -0.430022
  H      -2.652125     -2.427033     -1.933012
  H      -4.136371      0.977968      1.251702
28
Coordinates from ORCA-job 1_Cu2_Cys2 E -4720.175330824369
  Cu     -0.652920      1.936447     -1.035052
  Cu      0.647321      2.067221      0.911691
  S       1.894684      1.958540      2.688560
  O       5.089991      0.965495      0.803805
  O       5.019833      0.340211      2.960470
  N       3.330082     -1.669105      1.449012
  C       3.155310     -0.210353      1.505613
  C       2.126099      0.147734      2.558109
  C       4.499867      0.391738      1.866657
  H       2.826990      0.227173      0.550770
  H       1.182414     -0.336011      2.263195
  H       2.427419     -0.267403      3.523862
  H       3.889209     -1.908736      0.630092
  H       2.410552     -2.078810      1.276642
  H       5.959382      1.296761      1.099944
  S      -2.121209      1.844646     -2.643166
  O      -3.294557      0.449923      0.814748
  O      -4.824723      0.557683     -0.828439
  N      -3.163982     -1.914202     -1.379775
  C      -2.697450     -0.524376     -1.266552
  C      -2.585937      0.079721     -2.654707
  C      -3.721757      0.229343     -0.441025
  H      -1.718678     -0.431938     -0.761405
  H      -1.835585     -0.499897     -3.205466
  H      -3.545863     -0.039403     -3.164387
  H      -3.092199     -2.366767     -0.466650
  H      -2.498836     -2.409217     -1.975399
  H      -4.015818      0.910134      1.290452
28
Coordinates from ORCA-job 1_Cu2_Cys2 E -4720.175545512277
  Cu     -0.612140      1.970611     -0.997485
  Cu      0.678165      2.109182      0.958275
  S       1.923164      1.999893      2.746028
  O       4.957762      0.952091      0.684709
  O       5.032496      0.307921      2.837414
  N       3.220608     -1.673203      1.466790
  C       3.068986     -0.211406      1.514928
  C       2.114311      0.179654      2.626614
  C       4.440382      0.374165      1.781198
  H       2.686430      0.218215      0.575540
  H       1.144059     -0.287229      2.399877
  H       2.467891     -0.223360      3.579909
  H       3.724757     -1.931306      0.617534
  H       2.286227     -2.071756      1.357152
  H       5.849146      1.276409      0.914598
  S      -2.061204      1.867518     -2.622909
  O      -3.234574      0.387347      0.828905
  O      -4.762266      0.534675     -0.815634
  N      -3.097732     -1.917503     -1.401076
  C      -2.633729     -0.528174     -1.272671
  C      -2.524329      0.097830     -2.653205
  C      -3.658969      0.202733     -0.431974
  H      -1.654312     -0.441397     -0.767827
  H      -1.772633     -0.473197     -3.210903
  H      -3.482002     -0.016513     -3.168095
  H      -3.022176     -2.380691     -0.493571
  H      -2.435359     -2.404452     -2.006828
  H      -3.953320      0.828494      1.324310
28
Coordinates from ORCA-job 1_Cu2_Cys2 E -4720.175631315517
  Cu     -0.603311      2.010603     -0.972595
  Cu      0.695309      2.151523      0.979567
  S       1.948303      2.038904      2.767452
  O       4.855142      0.915547      0.584353
  O       5.032281      0.290207      2.736805
  N       3.120195     -1.681121      1.503294
  C       2.994984     -0.216576      1.524778
  C       2.101253      0.213437      2.672799
  C       4.385283      0.356497      1.712719
  H       2.573208      0.197243      0.594972
  H       1.112625     -0.238778      2.502979
  H       2.493967     -0.178124      3.615555
  H       3.577946     -1.965790      0.636223
  H       2.175040     -2.065925      1.447074
  H       5.761253      1.231352      0.765143
  S      -2.054059      1.897058     -2.596877
  O      -3.167156      0.339900      0.845095
  O      -4.712754      0.492695     -0.782660
  N      -3.012072     -1.922550     -1.427005
  C      -2.571613     -0.527273     -1.280452
  C      -2.489000      0.121464     -2.651673
  C      -3.599532      0.172947     -0.416553
  H      -1.588023     -0.432096     -0.784986
  H      -1.734796     -0.428164     -3.227603
  H      -3.450962      0.000583     -3.157265
  H      -2.917327     -2.398666     -0.528015
  H      -2.348401     -2.388265     -2.047758
  H      -3.888144      0.759919      1.356238
28
Coordinates from ORCA-job 1_Cu2_Cys2 E -4720.175641944582
  Cu     -0.601174      2.045348     -0.952290
  Cu      0.704738      2.189483      0.995912
  S       1.965747      2.075391      2.783001
  O       4.741434      0.878125      0.485205
  O       5.017947      0.276583      2.633892
  N       3.019530     -1.689996      1.544198
  C       2.917571     -0.224487      1.534322
  C       2.084784      0.247024      2.714483
  C       4.319536      0.335455      1.643864
  H       2.459539      0.172231      0.613772
  H       1.081369     -0.189693      2.600402
  H       2.515011     -0.135906      3.644491
  H       3.431530     -2.001127      0.662986
  H       2.066317     -2.059788      1.539824
  H       5.657320      1.187208      0.621394
  S      -2.050337      1.929774     -2.577550
  O      -3.077536      0.290189      0.864578
  O      -4.651223      0.459148     -0.734965
  N      -2.922487     -1.925702     -1.451359
  C      -2.505462     -0.524676     -1.289321
  C      -2.456413      0.146743     -2.652187
  C      -3.527833      0.144427     -0.397028
  H      -1.516136     -0.420157     -0.806839
  H      -1.701874     -0.381783     -3.247380
  H      -3.423526      0.015186     -3.145718
  H      -2.802613     -2.413016     -0.560849
  H      -2.259846     -2.369500     -2.089450
  H      -3.796272      0.690069      1.394212
28
Coordinates from ORCA-job 1_Cu2_Cys2 E -4720.175618199321
  Cu     -0.602386      2.084530     -0.932362
  Cu      0.718569      2.232904      1.006181
  S       1.992082      2.119970      2.787802
  O       4.620119      0.826920      0.388019
  O       4.998171      0.248452      2.527445
  N       2.907410     -1.694085      1.589623
  C       2.834068     -0.227858      1.546589
  C       2.068187      0.288899      2.753394
  C       4.249276      0.307168      1.574834
  H       2.340045      0.155139      0.638336
  H       1.051004     -0.126645      2.696685
  H       2.534170     -0.084530      3.670177
  H       3.270420     -2.035311      0.697826
  H       1.947779     -2.043651      1.639066
  H       5.547274      1.120383      0.473564
  S      -2.057258      1.964535     -2.551642
  O      -2.977929      0.229625      0.884314
  O      -4.584951      0.411552     -0.680292
  N      -2.821292     -1.927678     -1.479022
  C      -2.432445     -0.520565     -1.299617
  C      -2.426720      0.175453     -2.650653
  C      -3.449640      0.108429     -0.372749
  H      -1.435447     -0.402523     -0.835721
  H      -1.673058     -0.325898     -3.270147
  H      -3.400339      0.031527     -3.127794
  H      -2.671121     -2.428263     -0.600416
  H      -2.162399     -2.344648     -2.138843
  H      -3.693952      0.602721      1.437002
28
Coordinates from ORCA-job 1_Cu2_Cys2 E -4720.175611852961
  Cu     -0.614826      2.120031     -0.915648
  Cu      0.729056      2.273250      1.007651
  S       2.022391      2.166632      2.778739
  O       4.495030      0.762228      0.291948
  O       4.978720      0.228183      2.421370
  N       2.807041     -1.698000      1.657392
  C       2.757742     -0.232982      1.568173
  C       2.060775      0.335817      2.793037
  C       4.180797      0.276427      1.508726
  H       2.226804      0.129996      0.671796
  H       1.034112     -0.059708      2.796609
  H       2.563269     -0.022943      3.696587
  H       3.119363     -2.076188      0.761122
  H       1.844858     -2.026882      1.764299
  H       5.430249      1.040569      0.324154
  S      -2.079759      2.005298     -2.525321
  O      -2.871376      0.159350      0.898609
  O      -4.520336      0.357167     -0.619312
  N      -2.723452     -1.925024     -1.518512
  C      -2.364729     -0.512799     -1.318054
  C      -2.410742      0.211830     -2.652773
  C      -3.371719      0.068494     -0.349931
  H      -1.358883     -0.379294     -0.876783
  H      -1.661219     -0.258355     -3.301104
  H      -3.391929      0.054583     -3.109784
  H      -2.537784     -2.441092     -0.655635
  H      -2.071328     -2.310337     -2.204018
  H      -3.582487      0.500301      1.478261
28
Coordinates from ORCA-job 1_Cu2_Cys2 E -4720.175692260592
  Cu     -0.601146      2.143447     -0.891495
  Cu      0.755488      2.300870      1.023156
  S       2.060343      2.203305      2.787756
  O       4.364530      0.725989      0.206139
  O       4.968620      0.207904      2.308532
  N       2.732657     -1.696938      1.716296
  C       2.695329     -0.233815      1.593627
  C       2.071602      0.372819      2.839505
  C       4.118662      0.256437      1.444127
  H       2.120425      0.115330      0.718500
  H       1.040958     -0.006263      2.903530
  H       2.614380      0.024490      3.723462
  H       2.991776     -2.100904      0.814092
  H       1.773606     -2.010666      1.882252
  H       5.303058      0.994609      0.180292
  S      -2.068055      2.032240     -2.498042
  O      -2.801358      0.092444      0.903599
  O      -4.465639      0.330187     -0.591416
  N      -2.664870     -1.924267     -1.561061
  C      -2.314978     -0.513499     -1.335415
  C      -2.385343      0.238353     -2.653424
  C      -3.313877      0.037243     -0.341222
  H      -1.304293     -0.380123     -0.904768
  H      -1.641240     -0.212700     -3.321264
  H      -3.371452      0.081080     -3.099494
  H      -2.463191     -2.457052     -0.712186
  H      -2.018868     -2.288990     -2.263340
  H      -3.507485      0.415024      1.499861
28
Coordinates from ORCA-job 1_Cu2_Cys2 E -4720.175827608246
  Cu     -0.600931      2.150185     -0.876348
  Cu      0.768065      2.310760      1.030846
  S       2.087418      2.227688      2.788464
  O       4.243925      0.695549      0.136649
  O       4.973692      0.219909      2.208797
  N       2.720123     -1.703071      1.804368
  C       2.664906     -0.245000      1.634293
  C       2.100159      0.399706      2.889072
  C       4.075140      0.247080      1.393982
  H       2.044028      0.072649      0.777776
  H       1.074817      0.021926      3.012137
  H       2.684278      0.073827      3.755032
  H       2.937318     -2.136754      0.904540
  H       1.773088     -2.017244      2.028350
  H       5.177607      0.970508      0.053472
  S      -2.066325      2.058814     -2.484794
  O      -2.754408      0.032180      0.893056
  O      -4.429310      0.329064     -0.578663
  N      -2.643673     -1.916377     -1.613158
  C      -2.292070     -0.509749     -1.365971
  C      -2.382242      0.267559     -2.667239
  C      -3.278270      0.019282     -0.346915
  H      -1.275539     -0.381712     -0.946211
  H      -1.647810     -0.169378     -3.354704
  H      -3.374819      0.115848     -3.100510
  H      -2.429967     -2.465175     -0.777437
  H      -2.006353     -2.266023     -2.330834
  H      -3.453208      0.344501      1.503548
28
Coordinates from ORCA-job 1_Cu2_Cys2 E -4720.175823123252
  Cu     -0.588820      2.170360     -0.861060
  Cu      0.788045      2.332076      1.040888
  S       2.115351      2.252322      2.794064
  O       4.126117      0.673458      0.075312
  O       4.950620      0.197440      2.112019
  N       2.663803     -1.703928      1.851174
  C       2.611981     -0.249380      1.654328
  C       2.109509      0.424343      2.922240
  C       4.012735      0.230712      1.342682
  H       1.954927      0.055726      0.820526
  H       1.086627      0.062123      3.098122
  H       2.728549      0.105467      3.766378
  H       2.838550     -2.155095      0.950587
  H       1.724564     -2.005609      2.121531
  H       5.055924      0.943036     -0.054979
  S      -2.054693      2.079073     -2.468568
  O      -2.690806     -0.022494      0.896812
  O      -4.376685      0.317587     -0.554225
  N      -2.592703     -1.913838     -1.641426
  C      -2.248843     -0.507525     -1.380825
  C      -2.363751      0.286367     -2.670854
  C      -3.224402     -0.000978     -0.340524
  H      -1.227631     -0.377420     -0.973404
  H      -1.638662     -0.137405     -3.376288
  H      -3.363108      0.134286     -3.088627
  H      -2.362831     -2.470002     -0.814654
  H      -1.963071     -2.250141     -2.372201
  H      -3.381658      0.275992      1.522571
28
Coordinates from ORCA-job 1_Cu2_Cys2 E -4720.175886925105
  Cu     -0.576411      2.164088     -0.850901
  Cu      0.797480      2.324539      1.052124
  S       2.124735      2.256461      2.802419
  O       4.008933      0.666233      0.023518
  O       4.942060      0.211559      2.017870
  N       2.666362     -1.711163      1.907362
  C       2.587282     -0.261665      1.682689
  C       2.135603      0.431430      2.959446
  C       3.965835      0.230327      1.297067
  H       1.888692      0.018944      0.874133
  H       1.124911      0.064941      3.187196
  H       2.794977      0.130160      3.779421
  H       2.806353     -2.179804      1.009576
  H       1.744510     -2.018133      2.225898
  H       4.927448      0.946968     -0.154685
  S      -2.030756      2.092537     -2.467691
  O      -2.677821     -0.055625      0.887032
  O      -4.352628      0.332287     -0.564885
  N      -2.573381     -1.903951     -1.664337
  C      -2.228810     -0.499091     -1.397077
  C      -2.345536      0.302603     -2.681887
  C      -3.204285     -0.000736     -0.351926
  H      -1.207125     -0.370737     -0.989626
  H      -1.624451     -0.117816     -3.393092
  H      -3.347387      0.155896     -3.095519
  H      -2.343398     -2.464282     -0.840391
  H      -1.944524     -2.236666     -2.397356
  H      -3.369029      0.237248      1.515221
28
Coordinates from ORCA-job 1_Cu2_Cys2 E -4720.175890509076
  Cu     -0.584096      2.171652     -0.838435
  Cu      0.800637      2.329567      1.056545
  S       2.140804      2.273532      2.795343
  O       3.877642      0.624203     -0.034175
  O       4.921457      0.214140      1.914906
  N       2.657633     -1.716537      1.986675
  C       2.555404     -0.275924      1.719996
  C       2.165055      0.453713      2.998003
  C       3.907223      0.214166      1.247978
  H       1.813510     -0.026069      0.939952
  H       1.169154      0.091487      3.287587
  H       2.867291      0.176993      3.790957
  H       2.756069     -2.213797      1.098689
  H       1.756467     -2.019552      2.361484
  H       4.782495      0.908773     -0.268246
  S      -2.037959      2.119239     -2.455801
  O      -2.633273     -0.103117      0.873994
  O      -4.318684      0.323416     -0.555270
  N      -2.532248     -1.891961     -1.703131
  C      -2.200013     -0.486486     -1.423495
  C      -2.341316      0.331058     -2.695578
  C      -3.168906     -0.015393     -0.359064
  H      -1.174830     -0.351896     -1.026239
  H      -1.626838     -0.071095     -3.423452
  H      -3.347872      0.182411     -3.096820
  H      -2.286647     -2.459383     -0.888631
  H      -1.909123     -2.209530     -2.447608
  H      -3.319398      0.172941      1.515435
28
Coordinates from ORCA-job 1_Cu2_Cys2 E -4720.175824073050
  Cu     -0.574851      2.169708     -0.834744
  Cu      0.803281      2.325892      1.064794
  S       2.140502      2.282495      2.803555
  O       3.784571      0.605795     -0.066492
  O       4.898913      0.226543      1.849225
  N       2.655965     -1.715893      2.033486
  C       2.532536     -0.281614      1.746128
  C       2.182800      0.465619      3.026423
  C       3.861793      0.211612      1.218786
  H       1.760906     -0.050780      0.988844
  H       1.200124      0.102783      3.356869
  H       2.914918      0.204175      3.796738
  H       2.728094     -2.226953      1.151161
  H       1.770421     -2.019351      2.443866
  H       4.678426      0.894121     -0.335765
  S      -2.014841      2.130329     -2.463657
  O      -2.588707     -0.149012      0.864667
  O      -4.277499      0.348338     -0.537191
  N      -2.524397     -1.884177     -1.728399
  C      -2.182522     -0.481535     -1.444411
  C      -2.338653      0.345561     -2.708704
  C      -3.132728     -0.016762     -0.361135
  H      -1.150875     -0.354193     -1.061395
  H      -1.639227     -0.057902     -3.450320
  H      -3.352412      0.207867     -3.095330
  H      -2.269401     -2.457914     -0.921239
  H      -1.913693     -2.199617     -2.484016
  H      -3.263806      0.121419      1.519853
28
Coordinates from ORCA-job 1_Cu2_Cys2 E -4720.175853411871
  Cu     -0.600729      2.171777     -0.838483
  Cu      0.781205      2.320199      1.059245
  S       2.126186      2.295608      2.789036
  O       3.724686      0.552274     -0.085916
  O       4.887665      0.252688      1.814807
  N       2.691128     -1.715462      2.118938
  C       2.533027     -0.295556      1.787891
  C       2.206412      0.486717      3.054837
  C       3.837163      0.201505      1.208667
  H       1.736280     -0.104870      1.044636
  H       1.240115      0.119921      3.426067
  H       2.965613      0.261884      3.809752
  H       2.749837     -2.254955      1.252990
  H       1.823535     -2.021575      2.563626
  H       4.606875      0.846342     -0.386837
  S      -2.033224      2.152312     -2.475811
  O      -2.530281     -0.202739      0.839319
  O      -4.242303      0.370831     -0.504194
  N      -2.533842     -1.869797     -1.775207
  C      -2.183984     -0.469877     -1.485775
  C      -2.373707      0.372647     -2.734949
  C      -3.101358     -0.022210     -0.368099
  H      -1.141543     -0.348567     -1.130610
  H      -1.695940     -0.022909     -3.500419
  H      -3.397099      0.244984     -3.098456
  H      -2.256669     -2.453132     -0.982624
  H      -1.945772     -2.177971     -2.551431
  H      -3.183639      0.056482      1.520599
28
Coordinates from ORCA-job 1_Cu2_Cys2 E -4720.175819718324
  Cu     -0.591971      2.167681     -0.842386
  Cu      0.780898      2.312630      1.062091
  S       2.119274      2.304145      2.793923
  O       3.663743      0.534469     -0.098137
  O       4.871483      0.275217      1.780083
  N       2.704541     -1.710848      2.163938
  C       2.522970     -0.297742      1.815713
  C       2.218736      0.499146      3.078762
  C       3.808029      0.204515      1.198755
  H       1.706595     -0.126089      1.089067
  H       1.264186      0.130398      3.476838
  H       2.996746      0.289392      3.818442
  H       2.749797     -2.262152      1.304612
  H       1.850672     -2.019906      2.632834
  H       4.536140      0.832563     -0.422716
  S      -2.009040      2.158839     -2.492487
  O      -2.478274     -0.256404      0.823786
  O      -4.193982      0.409449     -0.471618
  N      -2.555453     -1.861796     -1.805722
  C      -2.179735     -0.469309     -1.512187
  C      -2.385263      0.385493     -2.750193
  C      -3.063639     -0.022007     -0.367895
  H      -1.127893     -0.365938     -1.180321
  H      -1.731469     -0.016966     -3.532813
  H      -3.418098      0.276239     -3.092258
  H      -2.268305     -2.455785     -1.024708
  H      -1.989685     -2.171133     -2.597842
  H      -3.111363      0.002450      1.524037
28
Coordinates from ORCA-job 1_Cu2_Cys2 E -4720.175674843752
  Cu     -0.558498      2.176084     -0.848421
  Cu      0.803344      2.314746      1.062981
  S       2.127735      2.320115      2.798346
  O       3.625866      0.539706     -0.101832
  O       4.847159      0.272599      1.766540
  N       2.658650     -1.700189      2.162040
  C       2.488257     -0.281135      1.822454
  C       2.204808      0.513239      3.088395
  C       3.776695      0.211452      1.195141
  H       1.666939     -0.096151      1.105772
  H       1.249578      0.155336      3.493948
  H       2.986176      0.291978      3.821653
  H       2.690925     -2.246078      1.297672
  H       1.805738     -2.003734      2.637373
  H       4.498553      0.827960     -0.433552
  S      -1.967085      2.154339     -2.504496
  O      -2.393320     -0.325985      0.824828
  O      -4.113887      0.443686     -0.406759
  N      -2.572782     -1.860833     -1.821608
  C      -2.159193     -0.480482     -1.523030
  C      -2.383705      0.387363     -2.747234
  C      -2.997197     -0.030536     -0.344930
  H      -1.096613     -0.402801     -1.223234
  H      -1.760926     -0.027594     -3.548926
  H      -3.427781      0.298155     -3.060590
  H      -2.273671     -2.468730     -1.055673
  H      -2.037993     -2.171968     -2.634112
  H      -2.998134     -0.063992      1.548853
28
Coordinates from ORCA-job 1_Cu2_Cys2 E -4720.175706798560
  Cu     -0.576254      2.177555     -0.853084
  Cu      0.788342      2.311790      1.057175
  S       2.118133      2.334871      2.786366
  O       3.566626      0.486745     -0.113143
  O       4.830717      0.293866      1.735684
  N       2.680713     -1.694516      2.234996
  C       2.483945     -0.288414      1.860859
  C       2.220962      0.536343      3.112966
  C       3.749469      0.201552      1.189675
  H       1.643634     -0.133842      1.158405
  H       1.279385      0.179609      3.549866
  H       3.021656      0.340908      3.832351
  H       2.700431     -2.263604      1.385799
  H       1.843309     -1.995515      2.738060
  H       4.428160      0.775401     -0.472740
  S      -1.977416      2.173404     -2.516164
  O      -2.322709     -0.385661      0.793697
  O      -4.058580      0.460427     -0.364089
  N      -2.585620     -1.847888     -1.863122
  C      -2.156008     -0.472767     -1.561351
  C      -2.415926      0.412580     -2.766089
  C      -2.951483     -0.038944     -0.348912
  H      -1.083617     -0.404241     -1.295352
  H      -1.822892      0.004213     -3.593128
  H      -3.470011      0.334732     -3.047095
  H      -2.264101     -2.466881     -1.115474
  H      -2.080080     -2.151226     -2.697025
  H      -2.901146     -0.133947      1.542469
28
Coordinates from ORCA-job 1_Cu2_Cys2 E -4720.175710171166
  Cu     -0.607845      2.190338     -0.857145
  Cu      0.771426      2.317844      1.044098
  S       2.116762      2.356719      2.760465
  O       3.506019      0.413567     -0.122733
  O       4.806881      0.293725      1.706876
  N       2.674157     -1.685767      2.309910
  C       2.467357     -0.292318      1.898376
  C       2.229159      0.568396      3.132235
  C       3.716161      0.177121      1.185258
  H       1.612432     -0.160711      1.208333
  H       1.297670      0.223633      3.599164
  H       3.045089      0.394431      3.839919
  H       2.677314     -2.280110      1.478442
  H       1.848332     -1.972517      2.838819
  H       4.358984      0.691976     -0.510510
  S      -2.014636      2.199822     -2.517605
  O      -2.209477     -0.447836      0.758070
  O      -3.985597      0.446511     -0.299502
  N      -2.574422     -1.835847     -1.907211
  C      -2.140474     -0.462334     -1.601904
  C      -2.460276      0.442926     -2.777323
  C      -2.882815     -0.060700     -0.345583
  H      -1.057276     -0.391227     -1.383132
  H      -1.905305      0.052508     -3.638460
  H      -3.526127      0.366654     -3.010464
  H      -2.214406     -2.465284     -1.186434
  H      -2.107162     -2.121312     -2.769234
  H      -2.752284     -0.213655      1.538874
28
Coordinates from ORCA-job 1_Cu2_Cys2 E -4720.175640827269
  Cu     -0.618498      2.203291     -0.861444
  Cu      0.766818      2.326428      1.036433
  S       2.119330      2.375678      2.746925
  O       3.449638      0.363758     -0.132511
  O       4.777568      0.288454      1.680313
  N       2.647725     -1.676981      2.349104
  C       2.440763     -0.288883      1.919825
  C       2.227059      0.592295      3.144144
  C       3.679200      0.160979      1.177926
  H       1.575570     -0.164450      1.240971
  H       1.301325      0.260584      3.631440
  H       3.053079      0.424488      3.841520
  H       2.634937     -2.283934      1.526890
  H       1.829032     -1.951582      2.895073
  H       4.297147      0.629477     -0.541048
  S      -2.026742      2.216907     -2.522081
  O      -2.112500     -0.506612      0.733463
  O      -3.909618      0.440190     -0.240699
  N      -2.557109     -1.827751     -1.930860
  C      -2.117780     -0.455418     -1.625571
  C      -2.484853      0.462359     -2.777333
  C      -2.814755     -0.077466     -0.336237
  H      -1.027409     -0.382568     -1.446179
  H      -1.965799      0.080303     -3.664120
  H      -3.559338      0.388787     -2.967668
  H      -2.167360     -2.463609     -1.231525
  H      -2.122185     -2.100953     -2.813551
  H      -2.625610     -0.287220      1.538399
28
Coordinates from ORCA-job 1_Cu2_Cys2 E -4720.175483185111
  Cu     -0.629244      2.227074     -0.866527
  Cu      0.763522      2.346057      1.027362
  S       2.124269      2.393795      2.734959
  O       3.395030      0.321475     -0.148661
  O       4.734614      0.257021      1.656873
  N       2.568166     -1.670498      2.347915
  C       2.389155     -0.278484      1.917645
  C       2.201460      0.610036      3.140975
  C       3.631416      0.138531      1.163692
  H       1.522813     -0.138003      1.243248
  H       1.273114      0.297589      3.636269
  H       3.028819      0.429544      3.833806
  H       2.536419     -2.279077      1.527244
  H       1.746711     -1.925477      2.899076
  H       4.243800      0.564311     -0.569533
  S      -2.047704      2.230465     -2.521314
  O      -1.984164     -0.542712      0.726098
  O      -3.818566      0.413305     -0.167732
  N      -2.496682     -1.825492     -1.927363
  C      -2.069500     -0.447012     -1.629382
  C      -2.498419      0.471837     -2.758817
  C      -2.724542     -0.096309     -0.309747
  H      -0.974200     -0.356599     -1.492049
  H      -2.016639      0.099987     -3.670413
  H      -3.579802      0.386602     -2.898170
  H      -2.068981     -2.458401     -1.247927
  H      -2.092965     -2.085198     -2.828757
  H      -2.468262     -0.337816      1.552830
28
Coordinates from ORCA-job 1_Cu2_Cys2 E -4720.175194623554
  Cu     -0.632030      2.262451     -0.868634
  Cu      0.768022      2.377541      1.020816
  S       2.135902      2.413960      2.727320
  O       3.323775      0.295217     -0.173736
  O       4.672280      0.194692      1.624636
  N       2.436944     -1.661893      2.314580
  C       2.308450     -0.259485      1.897176
  C       2.156317      0.625700      3.127145
  C       3.562784      0.112577      1.138724
  H       1.445602     -0.082760      1.226682
  H       1.219916      0.340922      3.624305
  H       2.979586      0.413772      3.816350
  H       2.379217     -2.262619      1.488821
  H       1.607819     -1.890170      2.866201
  H       4.177591      0.504397     -0.603196
  S      -2.066219      2.240253     -2.512179
  O      -1.814760     -0.576293      0.729213
  O      -3.693022      0.378294     -0.071680
  N      -2.408983     -1.827240     -1.905045
  C      -1.996272     -0.441371     -1.618370
  C      -2.495787      0.472780     -2.722335
  C      -2.600141     -0.117463     -0.266546
  H      -0.897841     -0.330068     -1.530317
  H      -2.053343      0.111076     -3.657467
  H      -3.581031      0.366571     -2.805695
  H      -1.938198     -2.453679     -1.248540
  H      -2.042290     -2.074138     -2.825606
  H      -2.264650     -0.386471      1.578976
28
Coordinates from ORCA-job 1_Cu2_Cys2 E -4720.174875017005
  Cu     -0.639964      2.296748     -0.869852
  Cu      0.769635      2.407448      1.013935
  S       2.146200      2.430349      2.718978
  O       3.257050      0.268431     -0.195411
  O       4.609352      0.132282      1.598543
  N       2.306805     -1.651899      2.285463
  C       2.230051     -0.242026      1.878554
  C       2.111364      0.639962      3.113718
  C       3.495990      0.084443      1.117340
  H       1.372777     -0.029939      1.210958
  H       1.167456      0.382893      3.612160
  H       2.929108      0.398236      3.799962
  H       2.224880     -2.244660      1.455550
  H       1.470041     -1.852521      2.836554
  H       4.115380      0.445579     -0.631021
  S      -2.092391      2.246334     -2.499717
  O      -1.636671     -0.603126      0.723465
  O      -3.558730      0.345937      0.024449
  N      -2.324192     -1.829250     -1.886496
  C      -1.926387     -0.436255     -1.610965
  C      -2.499501      0.471134     -2.683814
  C      -2.471170     -0.137029     -0.227430
  H      -0.827418     -0.303074     -1.576681
  H      -2.100476      0.119325     -3.641869
  H      -3.585475      0.343760     -2.707617
  H      -1.808570     -2.448515     -1.257560
  H      -1.999044     -2.063136     -2.825839
  H      -2.046462     -0.424881      1.596241
28
Coordinates from ORCA-job 1_Cu2_Cys2 E -4720.174692608984
  Cu     -0.632300      2.325466     -0.870941
  Cu      0.777990      2.436201      1.014491
  S       2.153929      2.439969      2.727850
  O       3.227613      0.272586     -0.206337
  O       4.560568      0.074223      1.596079
  N       2.186711     -1.639322      2.237355
  C       2.165456     -0.220961      1.853421
  C       2.067701      0.645442      3.100283
  C       3.449896      0.067788      1.106595
  H       1.321051      0.033357      1.183796
  H       1.113583      0.409441      3.589947
  H       2.874717      0.370493      3.786610
  H       2.090027     -2.214564      1.396648
  H       1.337499     -1.817696      2.777599
  H       4.094842      0.424257     -0.634273
  S      -2.096860      2.236834     -2.490697
  O      -1.492520     -0.631071      0.718473
  O      -3.431572      0.344112      0.104286
  N      -2.270720     -1.838011     -1.863155
  C      -1.872593     -0.442318     -1.600355
  C      -2.500503      0.458945     -2.645173
  C      -2.360059     -0.149174     -0.193948
  H      -0.774548     -0.299711     -1.614309
  H      -2.143978      0.106772     -3.619792
  H      -3.585625      0.323771     -2.615863
  H      -1.722848     -2.454068     -1.259011
  H      -1.984757     -2.066206     -2.816498
  H      -1.863065     -0.450003      1.608520
28
Coordinates from ORCA-job 1_Cu2_Cys2 E -4720.174385162393
  Cu     -0.623511      2.364215     -0.868271
  Cu      0.790983      2.475690      1.016388
  S       2.165420      2.443286      2.740476
  O       3.205967      0.282018     -0.221473
  O       4.497199     -0.004282      1.598429
  N       2.032852     -1.622568      2.160637
  C       2.084939     -0.196144      1.811854
  C       2.008087      0.645202      3.075698
  C       3.395339      0.045766      1.091511
  H       1.262127      0.115077      1.138790
  H       1.038657      0.437604      3.548179
  H       2.795889      0.323829      3.763974
  H       1.922162     -2.170740      1.303711
  H       1.166911     -1.773646      2.683199
  H       4.086560      0.402051     -0.631936
  S      -2.109153      2.218220     -2.466966
  O      -1.325214     -0.642164      0.720990
  O      -3.289155      0.337654      0.193097
  N      -2.195121     -1.852054     -1.825954
  C      -1.806077     -0.451125     -1.577461
  C      -2.496525      0.436159     -2.590117
  C      -2.232817     -0.159343     -0.151271
  H      -0.712707     -0.290928     -1.643082
  H      -2.183160      0.083900     -3.579666
  H      -3.577172      0.286092     -2.504484
  H      -1.610491     -2.460487     -1.249420
  H      -1.949104     -2.073488     -2.791902
  H      -1.653247     -0.453242      1.626668
28
Coordinates from ORCA-job 1_Cu2_Cys2 E -4720.174787234627
  Cu     -0.620106      2.380919     -0.862631
  Cu      0.803466      2.505473      1.016086
  S       2.183573      2.456450      2.740640
  O       3.212340      0.247892     -0.214115
  O       4.494208     -0.000910      1.616522
  N       2.025761     -1.611566      2.172808
  C       2.084806     -0.187020      1.823687
  C       2.014816      0.661779      3.084594
  C       3.394892      0.042670      1.103354
  H       1.263156      0.128063      1.150719
  H       1.044424      0.464353      3.559377
  H       2.803096      0.338310      3.771103
  H       1.911853     -2.157477      1.315511
  H       1.159859     -1.760213      2.695344
  H       4.095752      0.355250     -0.622012
  S      -2.112946      2.214148     -2.451472
  O      -1.313007     -0.682200      0.692366
  O      -3.269558      0.331315      0.190673
  N      -2.193349     -1.857392     -1.850050
  C      -1.808587     -0.456388     -1.593968
  C      -2.520501      0.438548     -2.580762
  C      -2.220810     -0.173301     -0.164459
  H      -0.717258     -0.287178     -1.671761
  H      -2.240522      0.091072     -3.581927
  H      -3.599681      0.297940     -2.463340
  H      -1.599603     -2.469297     -1.286810
  H      -1.957291     -2.068085     -2.820937
  H      -1.629143     -0.496606      1.603058
28
Coordinates from ORCA-job 1_Cu2_Cys2 E -4720.174741043857
  Cu     -0.615110      2.389806     -0.866582
  Cu      0.806670      2.515081      1.014408
  S       2.186076      2.470268      2.742287
  O       3.199193      0.242125     -0.206409
  O       4.477970     -0.017253      1.626108
  N       1.977452     -1.595635      2.176321
  C       2.063459     -0.170767      1.829178
  C       2.000608      0.677311      3.089742
  C       3.379729      0.035195      1.112301
  H       1.251057      0.158408      1.152354
  H       1.027671      0.488101      3.562961
  H       2.784169      0.346291      3.778017
  H       1.858531     -2.139338      1.317729
  H       1.104981     -1.728463      2.693309
  H       4.084082      0.336979     -0.614657
  S      -2.108770      2.218240     -2.455016
  O      -1.230075     -0.743226      0.658532
  O      -3.167935      0.337805      0.241640
  N      -2.200108     -1.859975     -1.859189
  C      -1.793668     -0.463916     -1.608665
  C      -2.534380      0.444151     -2.565421
  C      -2.149996     -0.194331     -0.159484
  H      -0.704426     -0.304691     -1.725943
  H      -2.297598      0.097241     -3.577786
  H      -3.608607      0.311591     -2.404865
  H      -1.590792     -2.479675     -1.321596
  H      -2.002491     -2.065962     -2.839543
  H      -1.508055     -0.558808      1.581870
28
Coordinates from ORCA-job 1_Cu2_Cys2 E -4720.175051597144
  Cu     -0.611678      2.385898     -0.881589
  Cu      0.802199      2.517210      1.000064
  S       2.164617      2.461177      2.729883
  O       3.244149      0.218967     -0.200384
  O       4.504419      0.053493      1.655338
  N       2.022361     -1.607726      2.201442
  C       2.089234     -0.184054      1.837209
  C       2.005306      0.670666      3.086672
  C       3.410423      0.043801      1.128083
  H       1.276069      0.128337      1.155454
  H       1.032717      0.467649      3.553919
  H       2.789051      0.353987      3.780991
  H       1.919767     -2.162103      1.346684
  H       1.146278     -1.748993      2.713417
  H       4.132107      0.339283     -0.592412
  S      -2.101818      2.216794     -2.466872
  O      -1.274772     -0.741312      0.667476
  O      -3.192323      0.357050      0.242087
  N      -2.223950     -1.857822     -1.879487
  C      -1.824287     -0.464793     -1.615819
  C      -2.554985      0.448585     -2.581255
  C      -2.189149     -0.195791     -0.163876
  H      -0.735712     -0.303370     -1.722069
  H      -2.323903      0.095855     -3.593391
  H      -3.630709      0.330681     -2.421620
  H      -1.619430     -2.478530     -1.337438
  H      -2.009579     -2.057913     -2.857245
  H      -1.556764     -0.540472      1.586340
28
Coordinates from ORCA-job 1_Cu2_Cys2 E -4720.175169540268
  Cu     -0.612117      2.381514     -0.877029
  Cu      0.799756      2.513933      1.007009
  S       2.166557      2.478586      2.734605
  O       3.202217      0.188704     -0.201000
  O       4.494567      0.053324      1.634730
  N       2.024764     -1.594947      2.231136
  C       2.084307     -0.174260      1.858919
  C       2.017419      0.689251      3.105611
  C       3.392203      0.045253      1.126370
  H       1.260889      0.131652      1.184890
  H       1.053037      0.487434      3.590004
  H       2.812619      0.381342      3.790892
  H       1.910520     -2.154197      1.381973
  H       1.156907     -1.733342      2.755240
  H       4.082888      0.294085     -0.614369
  S      -2.094977      2.222796     -2.471610
  O      -1.254416     -0.789746      0.628793
  O      -3.156931      0.356144      0.238814
  N      -2.222926     -1.852569     -1.899633
  C      -1.816524     -0.459910     -1.635598
  C      -2.563258      0.458752     -2.577324
  C      -2.160973     -0.202370     -0.180054
  H      -0.729085     -0.298655     -1.758679
  H      -2.359760      0.107433     -3.595334
  H      -3.635843      0.348075     -2.389524
  H      -1.612213     -2.477383     -1.369767
  H      -2.026279     -2.049183     -2.882008
  H      -1.523713     -0.605166      1.554540
28
Coordinates from ORCA-job 1_Cu2_Cys2 E -4720.175208014351
  Cu     -0.605242      2.375339     -0.882041
  Cu      0.796938      2.507439      1.008807
  S       2.157586      2.487702      2.738805
  O       3.160973      0.157504     -0.202153
  O       4.484540      0.087641      1.615059
  N       2.041102     -1.590721      2.267066
  C       2.081610     -0.172311      1.883103
  C       2.029013      0.699704      3.124112
  C       3.374371      0.052058      1.125025
  H       1.244178      0.121041      1.220677
  H       1.075141      0.493687      3.626952
  H       2.838102      0.404479      3.798604
  H       1.918090     -2.157931      1.424437
  H       1.183429     -1.732219      2.806518
  H       4.032570      0.264113     -0.633941
  S      -2.077033      2.227302     -2.488230
  O      -1.237894     -0.824757      0.597290
  O      -3.122401      0.362242      0.240854
  N      -2.230621     -1.846994     -1.922640
  C      -1.816288     -0.457061     -1.655998
  C      -2.572549      0.469684     -2.581032
  C      -2.140542     -0.209093     -0.194631
  H      -0.730039     -0.298852     -1.792791
  H      -2.397975      0.115385     -3.603227
  H      -3.641825      0.373903     -2.367794
  H      -1.617315     -2.476642     -1.401722
  H      -2.045489     -2.040187     -2.907781
  H      -1.492793     -0.645905      1.528271
28
Coordinates from ORCA-job 1_Cu2_Cys2 E -4720.174585033245
  Cu     -0.616620      2.385876     -0.876854
  Cu      0.779224      2.508219      1.019056
  S       2.135692      2.494826      2.752384
  O       3.078603      0.121773     -0.218457
  O       4.431703      0.071631      1.575284
  N       1.992457     -1.588927      2.266100
  C       2.031955     -0.169373      1.887268
  C       2.014428      0.701712      3.129498
  C       3.312665      0.043745      1.103653
  H       1.180636      0.134035      1.245238
  H       1.071204      0.497952      3.652845
  H       2.836481      0.409094      3.789104
  H       1.848934     -2.152448      1.424560
  H       1.148472     -1.727281      2.825082
  H       3.940187      0.211412     -0.673045
  S      -2.089350      2.229286     -2.484757
  O      -1.115259     -0.804754      0.562050
  O      -3.031655      0.361341      0.264188
  N      -2.190433     -1.843959     -1.919451
  C      -1.778634     -0.452448     -1.659715
  C      -2.569243      0.464936     -2.555337
  C      -2.052339     -0.199867     -0.195801
  H      -0.697636     -0.286490     -1.831230
  H      -2.418883      0.108954     -3.580625
  H      -3.632253      0.357964     -2.314129
  H      -1.564065     -2.470977     -1.410770
  H      -2.024988     -2.037100     -2.907491
  H      -1.331644     -0.622582      1.502954
28
Coordinates from ORCA-job 1_Cu2_Cys2 E -4720.175208451952
  Cu     -0.613123      2.361534     -0.886816
  Cu      0.774728      2.486504      1.013936
  S       2.128068      2.508545      2.743387
  O       3.076732      0.081826     -0.193590
  O       4.465479      0.150725      1.573843
  N       2.091048     -1.584563      2.355588
  C       2.082946     -0.173549      1.941565
  C       2.060429      0.724322      3.164231
  C       3.340058      0.059145      1.126925
  H       1.214222      0.088235      1.306045
  H       1.133125      0.505861      3.709340
  H       2.901127      0.467861      3.815334
  H       1.949548     -2.173247      1.530809
  H       1.260299     -1.732863      2.932585
  H       3.926309      0.188109     -0.667000
  S      -2.064511      2.245170     -2.515752
  O      -1.190214     -0.870969      0.520256
  O      -3.064191      0.357195      0.235688
  N      -2.255955     -1.832567     -1.981244
  C      -1.823375     -0.450626     -1.704656
  C      -2.596043      0.495183     -2.593849
  C      -2.101009     -0.221453     -0.233943
  H      -0.739328     -0.300319     -1.868903
  H      -2.465934      0.142725     -3.623005
  H      -3.658760      0.417547     -2.343694
  H      -1.641812     -2.474813     -1.476773
  H      -2.089763     -2.017014     -2.970997
  H      -1.410463     -0.701952      1.462291
28
Coordinates from ORCA-job 1_Cu2_Cys2 E -4720.175288867771
  Cu     -0.606191      2.363318     -0.891624
  Cu      0.776818      2.486997      1.012743
  S       2.125010      2.518308      2.744715
  O       3.041896      0.046673     -0.190148
  O       4.450376      0.175032      1.558283
  N       2.091379     -1.575984      2.389659
  C       2.076108     -0.168560      1.964472
  C       2.072204      0.737986      3.180037
  C       3.320711      0.057657      1.128307
  H       1.197708      0.088144      1.341034
  H       1.155945      0.520729      3.743803
  H       2.925920      0.489064      3.816717
  H       1.938059     -2.170416      1.571194
  H       1.269366     -1.720866      2.980575
  H       3.885105      0.152373     -0.675054
  S      -2.054642      2.247514     -2.523521
  O      -1.155997     -0.904106      0.485807
  O      -3.022004      0.343123      0.248668
  N      -2.261090     -1.829614     -2.011790
  C      -1.822750     -0.451570     -1.726271
  C      -2.610608      0.505222     -2.591457
  C      -2.074210     -0.238674     -0.246689
  H      -0.742245     -0.299738     -1.907832
  H      -2.514792      0.155110     -3.625305
  H      -3.666319      0.439502     -2.310410
  H      -1.641760     -2.477928     -1.521849
  H      -2.107278     -2.003892     -3.005446
  H      -1.357081     -0.738851      1.432981
28
Coordinates from ORCA-job 1_Cu2_Cys2 E -4720.175426849188
  Cu     -0.603904      2.366075     -0.895891
  Cu      0.774554      2.484397      1.012677
  S       2.116528      2.528552      2.748524
  O       3.047506      0.014722     -0.176847
  O       4.450622      0.194134      1.571479
  N       2.094585     -1.565662      2.414830
  C       2.080553     -0.160749      1.983059
  C       2.083791      0.751557      3.194274
  C       3.323025      0.056482      1.143041
  H       1.201549      0.095734      1.361377
  H       1.175893      0.531497      3.770207
  H       2.947555      0.510955      3.820009
  H       1.937966     -2.162454      1.598938
  H       1.274532     -1.707788      3.010039
  H       3.892446      0.118560     -0.659218
  S      -2.052149      2.251324     -2.528807
  O      -1.121717     -0.920557      0.451044
  O      -3.002539      0.307061      0.260087
  N      -2.287517     -1.828875     -2.042756
  C      -1.835187     -0.457410     -1.748780
  C      -2.631066      0.516215     -2.592395
  C      -2.060489     -0.259396     -0.260825
  H      -0.757383     -0.310303     -1.945714
  H      -2.563169      0.171176     -3.630260
  H      -3.680870      0.461693     -2.288748
  H      -1.671676     -2.486961     -1.561406
  H      -2.139091     -1.995623     -3.038732
  H      -1.304707     -0.757805      1.402393
28
Coordinates from ORCA-job 1_Cu2_Cys2 E -4720.175385632921
  Cu     -0.615151      2.355341     -0.901076
  Cu      0.755112      2.462486      1.013307
  S       2.091233      2.547019      2.747149
  O       2.968584     -0.067792     -0.161996
  O       4.423366      0.246675      1.523241
  N       2.141766     -1.556766      2.497463
  C       2.082450     -0.161794      2.036926
  C       2.116912      0.777958      3.226868
  C       3.286604      0.054205      1.142534
  H       1.175365      0.064438      1.444022
  H       1.239480      0.552857      3.845404
  H       3.010637      0.571390      3.821438
  H       1.967065     -2.174405      1.701064
  H       1.350564     -1.702891      3.128743
  H       3.792382      0.032420     -0.679889
  S      -2.049728      2.269911     -2.549695
  O      -1.083595     -0.956485      0.379933
  O      -2.962566      0.285818      0.253263
  N      -2.298928     -1.814114     -2.098674
  C      -1.842161     -0.446950     -1.791401
  C      -2.654326      0.540933     -2.601749
  C      -2.033711     -0.274698     -0.297600
  H      -0.768691     -0.295724     -2.007075
  H      -2.625043      0.199622     -3.642375
  H      -3.695114      0.497495     -2.267137
  H      -1.679515     -2.479602     -1.631883
  H      -2.161553     -1.968641     -3.097948
  H      -1.241799     -0.812157      1.338742
28
Coordinates from ORCA-job 1_Cu2_Cys2 E -4720.175109511658
  Cu     -0.651485      2.367608     -0.895949
  Cu      0.735174      2.455238      1.009059
  S       2.080802      2.558561      2.737853
  O       2.900163     -0.127826     -0.150565
  O       4.392921      0.218543      1.493628
  N       2.122648     -1.553030      2.550479
  C       2.062496     -0.164563      2.070170
  C       2.133494      0.795933      3.242824
  C       3.246703      0.022435      1.142930
  H       1.142776      0.059676      1.495786
  H       1.279365      0.578994      3.894574
  H       3.048485      0.600917      3.807679
  H       1.927597     -2.180828      1.766717
  H       1.348299     -1.689209      3.203708
  H       3.714356     -0.046318     -0.685399
  S      -2.107490      2.286505     -2.529100
  O      -0.953903     -0.903469      0.311551
  O      -2.913907      0.216596      0.263199
  N      -2.279803     -1.808678     -2.132486
  C      -1.831783     -0.439414     -1.824347
  C      -2.684987      0.547360     -2.593354
  C      -1.972668     -0.281936     -0.324453
  H      -0.768935     -0.268279     -2.073483
  H      -2.682505      0.221000     -3.639168
  H      -3.715595      0.479797     -2.232265
  H      -1.647700     -2.472960     -1.680374
  H      -2.154699     -1.955485     -3.134482
  H      -1.080179     -0.770618      1.276867
28
Coordinates from ORCA-job 1_Cu2_Cys2 E -4720.175460131280
  Cu     -0.632435      2.360685     -0.893954
  Cu      0.746533      2.455105      1.015650
  S       2.085172      2.570622      2.744653
  O       2.895214     -0.158224     -0.130676
  O       4.396647      0.265963      1.488792
  N       2.157137     -1.537759      2.584008
  C       2.080918     -0.153256      2.095391
  C       2.156246      0.814071      3.261689
  C       3.251716      0.038710      1.154162
  H       1.154844      0.059707      1.527603
  H       1.311417      0.592538      3.924811
  H       3.079200      0.629519      3.817893
  H       1.959286     -2.173212      1.807450
  H       1.389079     -1.673658      3.244353
  H       3.702680     -0.074457     -0.676376
  S      -2.075765      2.287233     -2.536894
  O      -0.987669     -0.966225      0.282533
  O      -2.920363      0.197968      0.249805
  N      -2.315563     -1.804646     -2.172208
  C      -1.848222     -0.445422     -1.848624
  C      -2.691545      0.563402     -2.600977
  C      -1.988724     -0.309858     -0.345217
  H      -0.783276     -0.285540     -2.097704
  H      -2.713863      0.245452     -3.648980
  H      -3.716116      0.516902     -2.220400
  H      -1.692909     -2.482445     -1.728102
  H      -2.193718     -1.941278     -3.176155
  H      -1.116280     -0.845345      1.249073
28
Coordinates from ORCA-job 1_Cu2_Cys2 E -4720.175613316957
  Cu     -0.638974      2.353854     -0.886370
  Cu      0.746720      2.448250      1.017895
  S       2.090442      2.584827      2.738433
  O       2.829986     -0.224140     -0.112680
  O       4.374581      0.295890      1.437863
  N       2.189707     -1.523433      2.644943
  C       2.088308     -0.148275      2.134827
  C       2.194070      0.838861      3.281971
  C       3.224653      0.032348      1.150613
  H       1.143982      0.048057      1.592282
  H       1.375030      0.620551      3.977618
  H       3.137096      0.670986      3.809394
  H       1.973788     -2.174585      1.886573
  H       1.442775     -1.652538      3.330157
  H       3.617230     -0.146904     -0.688621
  S      -2.079619      2.299693     -2.531419
  O      -0.991200     -1.001851      0.243190
  O      -2.925335      0.159119      0.233731
  N      -2.308640     -1.794074     -2.224416
  C      -1.850952     -0.436930     -1.878353
  C      -2.704199      0.580546     -2.608281
  C      -1.992342     -0.333792     -0.371542
  H      -0.788032     -0.264114     -2.126225
  H      -2.744058      0.276118     -3.659598
  H      -3.722350      0.532877     -2.211433
  H      -1.682402     -2.474795     -1.790319
  H      -2.185457     -1.913913     -3.230355
  H      -1.125171     -0.906081      1.211721
28
Coordinates from ORCA-job 1_Cu2_Cys2 E -4720.175543253042
  Cu     -0.647051      2.359152     -0.874664
  Cu      0.750887      2.455099      1.019820
  S       2.102991      2.595522      2.733162
  O       2.733755     -0.285460     -0.115088
  O       4.325265      0.299309      1.363928
  N       2.171898     -1.514034      2.669266
  C       2.065635     -0.142406      2.150179
  C       2.216753      0.852919      3.285062
  C       3.168939      0.016370      1.125314
  H       1.106183      0.056011      1.636084
  H       1.421970      0.643441      4.010838
  H       3.176656      0.683090      3.780524
  H       1.929252     -2.170085      1.923500
  H       1.443680     -1.631064      3.376515
  H       3.499959     -0.221260     -0.720795
  S      -2.097109      2.308941     -2.509902
  O      -0.959994     -1.010150      0.231331
  O      -2.908107      0.126443      0.236200
  N      -2.250772     -1.787270     -2.248062
  C      -1.824292     -0.424432     -1.884054
  C      -2.702120      0.584024     -2.597210
  C      -1.968974     -0.346622     -0.375325
  H      -0.766389     -0.223306     -2.130080
  H      -2.750611      0.288464     -3.650659
  H      -3.714100      0.518769     -2.187461
  H      -1.609469     -2.458880     -1.822123
  H      -2.124921     -1.891656     -3.255390
  H      -1.100275     -0.934377      1.200692
28
Coordinates from ORCA-job 1_Cu2_Cys2 E -4720.175435385760
  Cu     -0.663980      2.369551     -0.847484
  Cu      0.760820      2.479753      1.024496
  S       2.132515      2.603984      2.726695
  O       2.627216     -0.321410     -0.136789
  O       4.275985      0.258077      1.281311
  N       2.116164     -1.508649      2.661541
  C       2.032222     -0.135168      2.141429
  C       2.236759      0.858209      3.270480
  C       3.108682     -0.010388      1.084574
  H       1.065663      0.084477      1.650391
  H       1.462941      0.658215      4.021359
  H       3.208514      0.671568      3.735867
  H       1.841911     -2.160872      1.923362
  H       1.398321     -1.605239      3.382592
  H       3.372958     -0.276980     -0.770006
  S      -2.134422      2.317347     -2.458332
  O      -0.930890     -0.986501      0.259550
  O      -2.915738      0.082804      0.238060
  N      -2.154255     -1.785281     -2.247075
  C      -1.778902     -0.411617     -1.866802
  C      -2.682547      0.575496     -2.579802
  C      -1.950456     -0.353632     -0.359909
  H      -0.725325     -0.172972     -2.096589
  H      -2.710002      0.294015     -3.637756
  H      -3.695344      0.470408     -2.181094
  H      -1.494535     -2.438367     -1.820223
  H      -2.015581     -1.876431     -3.254033
  H      -1.099056     -0.933846      1.225789
28
Coordinates from ORCA-job 1_Cu2_Cys2 E -4720.175254018304
  Cu     -0.652518      2.385962     -0.848261
  Cu      0.762895      2.499223      1.029695
  S       2.122090      2.607527      2.743687
  O       2.636039     -0.341355     -0.147632
  O       4.256963      0.275117      1.285898
  N       2.064406     -1.506491      2.619307
  C       2.004114     -0.123996      2.118531
  C       2.212358      0.852050      3.260899
  C       3.094422     -0.003477      1.075315
  H       1.044903      0.116222      1.621735
  H       1.433181      0.648834      4.005347
  H       3.180242      0.652825      3.728420
  H       1.788820     -2.143312      1.868075
  H       1.338077     -1.604365      3.331779
  H       3.390987     -0.303178     -0.769456
  S      -2.124201      2.313816     -2.456530
  O      -0.881225     -0.991036      0.260185
  O      -2.859429      0.091710      0.270573
  N      -2.143137     -1.791005     -2.224995
  C      -1.761885     -0.417357     -1.851205
  C      -2.674762      0.569462     -2.553651
  C      -1.907590     -0.352796     -0.342977
  H      -0.711145     -0.180174     -2.096609
  H      -2.720606      0.279686     -3.608746
  H      -3.681627      0.468487     -2.139204
  H      -1.478872     -2.444089     -1.804961
  H      -2.016391     -1.883607     -3.233262
  H      -1.026472     -0.928133      1.229643
28
Coordinates from ORCA-job 1_Cu2_Cys2 E -4720.175388242598
  Cu     -0.643324      2.384705     -0.851897
  Cu      0.760810      2.509975      1.031850
  S       2.107220      2.591672      2.756583
  O       2.755795     -0.299165     -0.171239
  O       4.301144      0.297134      1.351309
  N       2.055880     -1.519309      2.539224
  C       2.016651     -0.125190      2.068851
  C       2.182849      0.825235      3.238879
  C       3.151540      0.018425      1.077875
  H       1.077611      0.128553      1.539610
  H       1.379646      0.607341      3.953060
  H       3.135316      0.620404      3.734772
  H       1.811143     -2.137419      1.761688
  H       1.301300     -1.633881      3.218996
  H       3.538829     -0.248131     -0.755295
  S      -2.104822      2.306508     -2.466489
  O      -0.960712     -0.970195      0.334850
  O      -2.929328      0.128748      0.272789
  N      -2.159139     -1.801094     -2.169418
  C      -1.776166     -0.424828     -1.807895
  C      -2.653263      0.559424     -2.559820
  C      -1.964301     -0.332918     -0.306694
  H      -0.714407     -0.203909     -2.023239
  H      -2.654534      0.254111     -3.611619
  H      -3.678762      0.468445     -2.191792
  H      -1.512508     -2.452907     -1.720492
  H      -2.006333     -1.911755     -3.172207
  H      -1.128499     -0.893428      1.299358
28
Coordinates from ORCA-job 1_Cu2_Cys2 E -4720.175467139783
  Cu     -0.658502      2.383939     -0.839024
  Cu      0.758608      2.511912      1.034751
  S       2.116379      2.611776      2.748157
  O       2.679125     -0.362505     -0.146560
  O       4.274789      0.293351      1.298739
  N       2.060425     -1.500310      2.601673
  C       2.015889     -0.114751      2.107423
  C       2.220736      0.854744      3.255491
  C       3.117740      0.000474      1.076001
  H       1.063570      0.134275      1.601393
  H       1.446734      0.643070      4.002859
  H       3.192222      0.661576      3.718755
  H       1.790318     -2.131025      1.842851
  H       1.324847     -1.597998      3.304334
  H       3.441810     -0.329042     -0.758912
  S      -2.124487      2.318407     -2.449212
  O      -0.933422     -1.015825      0.281767
  O      -2.901154      0.085645      0.266760
  N      -2.143040     -1.789213     -2.224454
  C      -1.769882     -0.416679     -1.840087
  C      -2.668831      0.572854     -2.557720
  C      -1.941976     -0.361277     -0.333924
  H      -0.713635     -0.178935     -2.064158
  H      -2.694491      0.285202     -3.614103
  H      -3.684080      0.471519     -2.164609
  H      -1.485672     -2.443111     -1.794992
  H      -2.000259     -1.878580     -3.230858
  H      -1.094123     -0.962944      1.249257
28
Coordinates from ORCA-job 1_Cu2_Cys2 E -4720.175137494393
  Cu     -0.683466      2.395549     -0.807576
  Cu      0.775903      2.533894      1.032277
  S       2.166202      2.612294      2.725104
  O       2.566666     -0.390097     -0.177265
  O       4.225630      0.234548      1.210874
  N       1.979319     -1.493674      2.579186
  C       1.974632     -0.106510      2.086506
  C       2.229009      0.853123      3.233015
  C       3.055216     -0.030747      1.028301
  H       1.023136      0.172899      1.597186
  H       1.461655      0.660339      3.992591
  H       3.201051      0.628434      3.681539
  H       1.677515     -2.114345      1.824259
  H       1.248839     -1.566245      3.290539
  H       3.310322     -0.383773     -0.814632
  S      -2.188604      2.319273     -2.377366
  O      -0.890061     -0.982159      0.322909
  O      -2.897568      0.042992      0.283429
  N      -2.024501     -1.782919     -2.206092
  C      -1.714039     -0.397642     -1.810359
  C      -2.644835      0.555372     -2.534342
  C      -1.912476     -0.362797     -0.304677
  H      -0.666898     -0.113551     -2.019317
  H      -2.630323      0.287365     -3.596219
  H      -3.661765      0.396183     -2.164879
  H      -1.340713     -2.409276     -1.777520
  H      -1.874020     -1.859649     -3.212532
  H      -1.076189     -0.952328      1.286662
28
Coordinates from ORCA-job 1_Cu2_Cys2 E -4720.175352606942
  Cu     -0.677522      2.393975     -0.817322
  Cu      0.769804      2.533526      1.031688
  S       2.150289      2.602614      2.732460
  O       2.667129     -0.348033     -0.184509
  O       4.271840      0.243935      1.278588
  N       1.994455     -1.504301      2.544087
  C       1.993202     -0.112287      2.065066
  C       2.206496      0.839063      3.226434
  C       3.108889     -0.015485      1.045939
  H       1.054413      0.165632      1.549821
  H       1.417467      0.637319      3.960980
  H       3.166197      0.617213      3.701633
  H       1.720347     -2.119309      1.773853
  H       1.244187     -1.590472      3.232974
  H       3.434072     -0.328662     -0.792508
  S      -2.172575      2.314265     -2.396872
  O      -0.936786     -0.975815      0.347557
  O      -2.926441      0.083194      0.282499
  N      -2.066487     -1.792102     -2.178665
  C      -1.737772     -0.407360     -1.796640
  C      -2.645564      0.551950     -2.541798
  C      -1.945400     -0.347826     -0.294153
  H      -0.683746     -0.143161     -1.999729
  H      -2.618332      0.272553     -3.600508
  H      -3.670446      0.408617     -2.188471
  H      -1.395012     -2.423880     -1.738261
  H      -1.909976     -1.882374     -3.183007
  H      -1.123090     -0.926236      1.310462
28
Coordinates from ORCA-job 1_Cu2_Cys2 E -4720.175428606771
  Cu     -0.671010      2.392079     -0.819553
  Cu      0.769366      2.529768      1.035618
  S       2.143948      2.612311      2.739057
  O       2.644913     -0.385439     -0.157672
  O       4.254312      0.284527      1.266612
  N       2.027933     -1.498767      2.583345
  C       2.001247     -0.110298      2.096297
  C       2.229453      0.853450      3.245591
  C       3.095056     -0.008769      1.056093
  H       1.049104      0.154143      1.597318
  H       1.459634      0.651656      4.000188
  H       3.202484      0.647906      3.700646
  H       1.745128     -2.121056      1.822307
  H       1.295219     -1.590778      3.289192
  H       3.402137     -0.363160     -0.777476
  S      -2.155647      2.321077     -2.411569
  O      -0.931573     -1.000189      0.305120
  O      -2.921853      0.061615      0.268587
  N      -2.094322     -1.788745     -2.215929
  C      -1.751850     -0.410373     -1.823793
  C      -2.657219      0.565659     -2.551143
  C      -1.945676     -0.364185     -0.320188
  H      -0.696307     -0.152781     -2.031881
  H      -2.653182      0.288584     -3.610669
  H      -3.678585      0.438528     -2.182156
  H      -1.428627     -2.431134     -1.782068
  H      -1.941008     -1.872536     -3.221291
  H      -1.103435     -0.956542      1.271015
28
Coordinates from ORCA-job 1_Cu2_Cys2 E -4720.175404210267
  Cu     -0.682312      2.395944     -0.809263
  Cu      0.771648      2.537825      1.034482
  S       2.155928      2.614514      2.730356
  O       2.632474     -0.398746     -0.162064
  O       4.249921      0.267501      1.254882
  N       2.005725     -1.495146      2.579096
  C       1.993912     -0.106850      2.090541
  C       2.231339      0.855690      3.238531
  C       3.088158     -0.018912      1.049132
  H       1.044695      0.166771      1.591210
  H       1.461702      0.659096      3.994643
  H       3.203656      0.643473      3.691967
  H       1.717465     -2.115074      1.818137
  H       1.270917     -1.578904      3.284092
  H       3.388978     -0.385686     -0.783117
  S      -2.178859      2.322475     -2.389002
  O      -0.923262     -0.998795      0.311655
  O      -2.919093      0.051604      0.275174
  N      -2.068478     -1.786847     -2.215289
  C      -1.742171     -0.406133     -1.817520
  C      -2.656262      0.562002     -2.544159
  C      -1.939845     -0.366626     -0.313748
  H      -0.689304     -0.135895     -2.022172
  H      -2.641635      0.291954     -3.605457
  H      -3.677948      0.418408     -2.182046
  H      -1.394618     -2.422761     -1.784525
  H      -1.914943     -1.864575     -3.221125
  H      -1.098151     -0.959756      1.277186
28
Coordinates from ORCA-job 1_Cu2_Cys2 E -4720.175378677536
  Cu     -0.703264      2.402310     -0.788379
  Cu      0.780243      2.550750      1.031042
  S       2.186178      2.619098      2.709800
  O       2.612275     -0.423241     -0.165599
  O       4.243729      0.238510      1.237591
  N       1.973349     -1.487833      2.578492
  C       1.984663     -0.101357      2.084706
  C       2.239072      0.862100      3.227868
  C       3.077999     -0.036985      1.040262
  H       1.039535      0.185964      1.585504
  H       1.468830      0.679485      3.986892
  H       3.209372      0.638527      3.680167
  H       1.674831     -2.105437      1.819639
  H       1.237337     -1.556939      3.283982
  H       3.366610     -0.426363     -0.789580
  S      -2.224659      2.325140     -2.344226
  O      -0.912733     -0.996539      0.318698
  O      -2.924052      0.023323      0.281837
  N      -2.028354     -1.782482     -2.220840
  C      -1.730057     -0.399369     -1.809765
  C      -2.656896      0.557198     -2.534707
  C      -1.936309     -0.375424     -0.306323
  H      -0.681460     -0.107591     -2.006118
  H      -2.619616      0.304008     -3.599693
  H      -3.679910      0.383373     -2.189787
  H      -1.341301     -2.408165     -1.796119
  H      -1.873549     -1.847465     -3.227426
  H      -1.092223     -0.968046      1.283679
28
Coordinates from ORCA-job 1_Cu2_Cys2 E -4720.175374581930
  Cu     -0.713302      2.404540     -0.778394
  Cu      0.786887      2.554566      1.027281
  S       2.204696      2.620044      2.695371
  O       2.608783     -0.432922     -0.168742
  O       4.243117      0.226191      1.232140
  N       1.962700     -1.485331      2.578938
  C       1.982084     -0.100644      2.080758
  C       2.242049      0.864730      3.220904
  C       3.076230     -0.045089      1.036367
  H       1.038482      0.190734      1.580903
  H       1.468862      0.691567      3.979164
  H       3.209645      0.635112      3.675874
  H       1.660157     -2.103344      1.822115
  H       1.226762     -1.547772      3.285278
  H       3.363309     -0.441328     -0.792416
  S      -2.248530      2.326394     -2.322077
  O      -0.916660     -0.995391      0.326378
  O      -2.935211      0.009241      0.283582
  N      -2.009568     -1.779457     -2.223730
  C      -1.726987     -0.395682     -1.804025
  C      -2.657219      0.555212     -2.531762
  C      -1.941942     -0.379677     -0.301605
  H      -0.680057     -0.093100     -1.992394
  H      -2.604067      0.310458     -3.598140
  H      -3.682117      0.366545     -2.200234
  H      -1.317016     -2.399940     -1.800320
  H      -1.850673     -1.837133     -3.230186
  H      -1.100775     -0.971975      1.290572
28
Coordinates from ORCA-job 1_Cu2_Cys2 E -4720.175435469449
  Cu     -0.728326      2.409873     -0.759778
  Cu      0.803005      2.562259      1.020320
  S       2.242652      2.623818      2.668331
  O       2.617374     -0.438110     -0.170468
  O       4.251381      0.195940      1.241630
  N       1.948701     -1.479464      2.587061
  C       1.981892     -0.099534      2.077503
  C       2.246890      0.872912      3.210398
  C       3.082124     -0.059042      1.038823
  H       1.042174      0.196879      1.572760
  H       1.464490      0.719920      3.963571
  H       3.207098      0.633012      3.675308
  H       1.640709     -2.100600      1.835134
  H       1.211929     -1.528797      3.293746
  H       3.375892     -0.454553     -0.788820
  S      -2.288093      2.328645     -2.283113
  O      -0.920796     -1.000678      0.328054
  O      -2.950507     -0.019443      0.285031
  N      -1.994984     -1.776060     -2.236873
  C      -1.729296     -0.394397     -1.800412
  C      -2.663552      0.553956     -2.526303
  C      -1.951169     -0.392650     -0.299597
  H      -0.684229     -0.079414     -1.979514
  H      -2.589544      0.326038     -3.595300
  H      -3.690578      0.343954     -2.214389
  H      -1.295519     -2.393209     -1.819783
  H      -1.832612     -1.819334     -3.243590
  H      -1.107469     -0.985370      1.291871
28
Coordinates from ORCA-job 1_Cu2_Cys2 E -4720.175541862116
  Cu     -0.748306      2.415128     -0.736757
  Cu      0.821391      2.569927      1.011236
  S       2.289179      2.633403      2.633418
  O       2.620975     -0.452077     -0.161737
  O       4.261164      0.152515      1.255424
  N       1.937196     -1.466610      2.615562
  C       1.985001     -0.095144      2.085181
  C       2.261071      0.891297      3.203112
  C       3.087832     -0.079595      1.048638
  H       1.048255      0.204685      1.576491
  H       1.472980      0.764213      3.955113
  H       3.215640      0.643370      3.675240
  H       1.619273     -2.095482      1.874280
  H       1.202557     -1.496506      3.325554
  H       3.381678     -0.484257     -0.776563
  S      -2.337360      2.332897     -2.235344
  O      -0.916737     -1.019589      0.309429
  O      -2.959788     -0.066072      0.282654
  N      -1.985082     -1.768868     -2.269976
  C      -1.735533     -0.392553     -1.808302
  C      -2.679747      0.557108     -2.519201
  C      -1.956332     -0.417203     -0.308277
  H      -0.693910     -0.062661     -1.981697
  H      -2.593809      0.353173     -3.592202
  H      -3.705682      0.323625     -2.220521
  H      -1.277740     -2.385388     -1.865328
  H      -1.822258     -1.790911     -3.277325
  H      -1.102269     -1.021873      1.273499
28
Coordinates from ORCA-job 1_Cu2_Cys2 E -4720.175670106993
  Cu     -0.768113      2.420628     -0.716931
  Cu      0.835373      2.576168      1.002075
  S       2.328253      2.642898      2.601536
  O       2.645333     -0.454308     -0.151605
  O       4.282046      0.095225      1.290979
  N       1.920526     -1.452107      2.641714
  C       1.990389     -0.089679      2.090689
  C       2.268169      0.909902      3.196324
  C       3.105433     -0.101949      1.066977
  H       1.062343      0.214751      1.568952
  H       1.469515      0.805834      3.940661
  H       3.213832      0.654886      3.682225
  H       1.598546     -2.088214      1.908368
  H       1.180688     -1.460779      3.346998
  H       3.413657     -0.505521     -0.755327
  S      -2.383414      2.335658     -2.191701
  O      -0.899088     -1.038000      0.281671
  O      -2.953138     -0.108834      0.285293
  N      -1.989473     -1.762949     -2.301192
  C      -1.744603     -0.392563     -1.819819
  C      -2.701915      0.560372     -2.508089
  C      -1.951077     -0.440280     -0.318940
  H      -0.706859     -0.053159     -1.998045
  H      -2.616416      0.378057     -3.585056
  H      -3.724051      0.307696     -2.211915
  H      -1.275979     -2.381898     -1.911346
  H      -1.832574     -1.767930     -3.309673
  H      -1.077766     -1.057354      1.246774
28
Coordinates from ORCA-job 1_Cu2_Cys2 E -4720.175825810436
  Cu     -0.793797      2.426132     -0.693416
  Cu      0.849168      2.581087      0.990181
  S       2.371026      2.658472      2.561551
  O       2.666537     -0.472669     -0.132713
  O       4.300074      0.022438      1.332041
  N       1.897165     -1.428051      2.684255
  C       1.994995     -0.079752      2.102599
  C       2.280567      0.938466      3.189227
  C       3.120454     -0.133770      1.091230
  H       1.076930      0.229288      1.566461
  H       1.474793      0.861891      3.929118
  H       3.218814      0.677386      3.686015
  H       1.566854     -2.075050      1.964176
  H       1.152654     -1.406209      3.384479
  H       3.441696     -0.553724     -0.724013
  S      -2.438967      2.340612     -2.138839
  O      -0.863324     -1.067961      0.232104
  O      -2.930679     -0.172030      0.288018
  N      -1.991323     -1.750510     -2.349316
  C      -1.753199     -0.388442     -1.840772
  C      -2.735235      0.567104     -2.489173
  C      -1.933281     -0.473431     -0.338819
  H      -0.723020     -0.032921     -2.029849
  H      -2.666953      0.410147     -3.571361
  H      -3.748133      0.291977     -2.181643
  H      -1.270184     -2.372458     -1.978996
  H      -1.842454     -1.733043     -3.358747
  H      -1.031543     -1.118426      1.197800
28
Coordinates from ORCA-job 1_Cu2_Cys2 E -4720.175942856110
  Cu     -0.804513      2.429496     -0.683587
  Cu      0.860954      2.585802      0.979076
  S       2.399195      2.659723      2.537640
  O       2.700017     -0.452429     -0.133288
  O       4.318082     -0.035557      1.372004
  N       1.873670     -1.418859      2.688716
  C       1.996835     -0.076963      2.096394
  C       2.274916      0.947130      3.179674
  C       3.139202     -0.151080      1.105063
  H       1.091674      0.237645      1.542471
  H       1.453838      0.886782      3.904118
  H       3.199841      0.677119      3.696378
  H       1.547071     -2.068783      1.969401
  H       1.116864     -1.381002      3.375147
  H       3.484106     -0.548227     -0.710407
  S      -2.466774      2.338414     -2.108714
  O      -0.848773     -1.077925      0.219380
  O      -2.919543     -0.191340      0.295000
  N      -1.991624     -1.747352     -2.357798
  C      -1.756112     -0.387014     -1.842608
  C      -2.749930      0.566036     -2.475030
  C      -1.924866     -0.484301     -0.340153
  H      -0.729762     -0.024778     -2.038591
  H      -2.688384      0.420399     -3.559180
  H      -3.757980      0.278655     -2.162778
  H      -1.266996     -2.368857     -1.993761
  H      -1.847086     -1.724515     -3.367681
  H      -1.014287     -1.141668      1.184713
28
Coordinates from ORCA-job 1_Cu2_Cys2 E -4720.176007097233
  Cu     -0.801998      2.431065     -0.688740
  Cu      0.874047      2.588404      0.962824
  S       2.414781      2.650543      2.523020
  O       2.726628     -0.413830     -0.147452
  O       4.322919     -0.084842      1.402337
  N       1.838681     -1.418865      2.667540
  C       1.987232     -0.078397      2.076803
  C       2.252056      0.942618      3.167209
  C       3.147220     -0.160298      1.107084
  H       1.097053      0.244034      1.504675
  H       1.412199      0.892278      3.870761
  H       3.159328      0.657936      3.707259
  H       1.522072     -2.066496      1.941521
  H       1.064700     -1.372022      3.334217
  H       3.520140     -0.515578     -0.710767
  S      -2.470459      2.333824     -2.097792
  O      -0.824859     -1.070915      0.225758
  O      -2.897103     -0.188742      0.312007
  N      -1.978526     -1.747815     -2.338623
  C      -1.746714     -0.382953     -1.832496
  C      -2.754400      0.560600     -2.455686
  C      -1.905043     -0.479674     -0.328242
  H      -0.724908     -0.014891     -2.039274
  H      -2.711504      0.411194     -3.540096
  H      -3.755292      0.269718     -2.124238
  H      -1.252579     -2.364719     -1.969634
  H      -1.834948     -1.733388     -3.348765
  H      -0.991085     -1.142239      1.190389
28
Coordinates from ORCA-job 1_Cu2_Cys2 E -4720.176146880714
  Cu     -0.820983      2.420087     -0.687756
  Cu      0.878111      2.578896      0.939654
  S       2.433750      2.647822      2.484371
  O       2.749171     -0.412786     -0.133186
  O       4.339925     -0.120907      1.430017
  N       1.852974     -1.415500      2.703197
  C       2.000518     -0.085458      2.088921
  C       2.255678      0.955548      3.163322
  C       3.165218     -0.177332      1.125952
  H       1.112759      0.223624      1.506030
  H       1.407440      0.920556      3.857744
  H       3.154788      0.676864      3.720048
  H       1.545327     -2.078392      1.987072
  H       1.073067     -1.359442      3.362216
  H       3.545202     -0.520173     -0.692156
  S      -2.504108      2.335315     -2.074545
  O      -0.827195     -1.073560      0.205128
  O      -2.906140     -0.208874      0.303525
  N      -1.980310     -1.737599     -2.361273
  C      -1.759458     -0.374290     -1.845810
  C      -2.777897      0.565867     -2.456010
  C      -1.913297     -0.486179     -0.341504
  H      -0.741911      0.004982     -2.052523
  H      -2.739822      0.429615     -3.542243
  H      -3.774458      0.262824     -2.122383
  H      -1.250866     -2.351371     -1.994028
  H      -1.835148     -1.716939     -3.371118
  H      -0.992693     -1.156648      1.168937
28
Coordinates from ORCA-job 1_Cu2_Cys2 E -4720.176257816622
  Cu     -0.852902      2.412357     -0.674683
  Cu      0.897907      2.578435      0.895361
  S       2.481824      2.646998      2.411206
  O       2.797249     -0.435471     -0.109006
  O       4.357890     -0.194885      1.492996
  N       1.830591     -1.396110      2.747894
  C       2.006730     -0.087796      2.096857
  C       2.254365      0.983429      3.143606
  C       3.189459     -0.217676      1.160979
  H       1.133825      0.214352      1.487929
  H       1.388929      0.986376      3.817621
  H       3.133925      0.708044      3.732352
  H       1.532483     -2.077581      2.045197
  H       1.036789     -1.311775      3.387085
  H       3.603224     -0.563827     -0.648987
  S      -2.573798      2.334305     -2.006118
  O      -0.796479     -1.095202      0.159325
  O      -2.888651     -0.270081      0.313526
  N      -1.970471     -1.716677     -2.406433
  C      -1.774751     -0.362701     -1.858502
  C      -2.821469      0.570663     -2.430455
  C      -1.902701     -0.514730     -0.355122
  H      -0.769065      0.045275     -2.068621
  H      -2.797587      0.462123     -3.520249
  H      -3.807005      0.240207     -2.089604
  H      -1.224073     -2.322522     -2.060431
  H      -1.835508     -1.668397     -3.416804
  H      -0.941091     -1.200581      1.124683
28
Coordinates from ORCA-job 1_Cu2_Cys2 E -4720.176223316649
  Cu     -0.867188      2.402464     -0.677383
  Cu      0.913720      2.571197      0.854111
  S       2.503341      2.644192      2.357195
  O       2.820762     -0.468084     -0.083918
  O       4.359322     -0.228892      1.539805
  N       1.817789     -1.383278      2.790837
  C       2.003116     -0.093826      2.108779
  C       2.243723      1.004324      3.130385
  C       3.196246     -0.243470      1.190430
  H       1.136415      0.195021      1.484332
  H       1.368207      1.035525      3.791039
  H       3.111230      0.740482      3.741902
  H       1.530022     -2.083410      2.102848
  H       1.017571     -1.282695      3.418911
  H       3.633259     -0.603013     -0.612169
  S      -2.606241      2.341091     -1.973201
  O      -0.743077     -1.105015      0.104531
  O      -2.847416     -0.327400      0.329395
  N      -1.973034     -1.699009     -2.443991
  C      -1.786740     -0.354429     -1.872466
  C      -2.857475      0.578789     -2.404567
  C      -1.874444     -0.537639     -0.369564
  H      -0.791482      0.072406     -2.095182
  H      -2.864214      0.480561     -3.495511
  H      -3.831442      0.241152     -2.038515
  H      -1.211467     -2.300384     -2.124319
  H      -1.858797     -1.627892     -3.455456
  H      -0.852072     -1.222215      1.073342
28
Coordinates from ORCA-job 1_Cu2_Cys2 E -4720.176402647592
  Cu     -0.882655      2.403990     -0.653565
  Cu      0.937748      2.575072      0.833736
  S       2.555010      2.645902      2.310234
  O       2.884570     -0.462849     -0.058978
  O       4.380152     -0.298288      1.612612
  N       1.804770     -1.360282      2.826722
  C       2.016263     -0.089927      2.117383
  C       2.248887      1.029985      3.116860
  C       3.228235     -0.269310      1.229069
  H       1.164417      0.194083      1.471026
  H       1.357691      1.092544      3.753812
  H       3.097691      0.768506      3.754923
  H       1.519234     -2.073924      2.151732
  H       0.996009     -1.235313      3.439462
  H       3.707672     -0.616264     -0.564854
  S      -2.653500      2.336102     -1.911769
  O      -0.731652     -1.136119      0.058587
  O      -2.839738     -0.382759      0.325093
  N      -1.996606     -1.688020     -2.488864
  C      -1.807527     -0.356233     -1.888691
  C      -2.889813      0.582255     -2.385515
  C      -1.873933     -0.571036     -0.389673
  H      -0.817546      0.080192     -2.116090
  H      -2.903638      0.512678     -3.478627
  H      -3.857800      0.226232     -2.021170
  H      -1.226737     -2.293120     -2.197470
  H      -1.899285     -1.591032     -3.499852
  H      -0.828282     -1.276515      1.025465
28
Coordinates from ORCA-job 1_Cu2_Cys2 E -4720.176467443005
  Cu     -0.843995      2.423470     -0.671239
  Cu      0.950990      2.590869      0.849260
  S       2.548447      2.633830      2.352896
  O       2.902278     -0.379014     -0.094208
  O       4.370062     -0.301420      1.607889
  N       1.788219     -1.383996      2.759829
  C       2.001087     -0.095945      2.084212
  C       2.218995      0.999461      3.113373
  C       3.225308     -0.245448      1.206852
  H       1.154760      0.202303      1.438053
  H       1.316110      1.053753      3.734031
  H       3.056521      0.720372      3.758929
  H       1.507739     -2.082060      2.066516
  H       0.976463     -1.276756      3.371931
  H       3.732279     -0.511589     -0.594259
  S      -2.594522      2.335803     -1.965044
  O      -0.748012     -1.117500      0.116562
  O      -2.848070     -0.329443      0.343011
  N      -2.002600     -1.712397     -2.430386
  C      -1.793746     -0.370571     -1.858645
  C      -2.856238      0.572515     -2.386351
  C      -1.877082     -0.547994     -0.356062
  H      -0.794881      0.043700     -2.088564
  H      -2.863332      0.473047     -3.477196
  H      -3.832289      0.244095     -2.018401
  H      -1.238664     -2.322044     -2.132927
  H      -1.909713     -1.634629     -3.443404
  H      -0.856475     -1.235860      1.084941
28
Coordinates from ORCA-job 1_Cu2_Cys2 E -4720.176459012681
  Cu     -0.857613      2.408451     -0.677139
  Cu      0.955187      2.575357      0.818913
  S       2.557656      2.623249      2.313407
  O       2.923890     -0.376085     -0.082398
  O       4.378144     -0.327131      1.632970
  N       1.798049     -1.384330      2.787540
  C       2.007482     -0.108054      2.090023
  C       2.210126      1.007064      3.102707
  C       3.237451     -0.259523      1.222510
  H       1.164563      0.172352      1.431885
  H       1.296901      1.073383      3.707391
  H       3.034855      0.738110      3.769037
  H       1.529938     -2.097428      2.105144
  H       0.979721     -1.271395      3.389377
  H       3.757929     -0.506130     -0.576778
  S      -2.618285      2.339221     -1.946284
  O      -0.737759     -1.109807      0.100110
  O      -2.845108     -0.346545      0.343858
  N      -2.002432     -1.701733     -2.439691
  C      -1.802087     -0.360138     -1.865038
  C      -2.874648      0.578773     -2.382351
  C      -1.875595     -0.548328     -0.362429
  H      -0.807577      0.062947     -2.097662
  H      -2.888305      0.487204     -3.473719
  H      -3.846332      0.241626     -2.010561
  H      -1.233353     -2.305890     -2.144406
  H      -1.913075     -1.622068     -3.452934
  H      -0.840084     -1.236602      1.068115
28
Coordinates from ORCA-job 1_Cu2_Cys2 E -4720.176550005581
  Cu     -0.859355      2.409066     -0.678974
  Cu      0.971959      2.574697      0.795121
  S       2.581445      2.612482      2.284084
  O       2.989270     -0.333443     -0.068686
  O       4.387535     -0.385382      1.692358
  N       1.787516     -1.382548      2.797139
  C       2.012360     -0.117531      2.085342
  C       2.194018      1.012110      3.086758
  C       3.262648     -0.274247      1.248855
  H       1.183994      0.154881      1.405978
  H       1.263207      1.096154      3.661760
  H       2.996218      0.745540      3.781023
  H       1.531610     -2.105584      2.120543
  H       0.957913     -1.259820      3.381533
  H       3.836293     -0.463042     -0.540317
  S      -2.631658      2.339503     -1.930926
  O      -0.722640     -1.113346      0.079802
  O      -2.829005     -0.357635      0.352958
  N      -2.023526     -1.700230     -2.445704
  C      -1.814814     -0.360720     -1.869102
  C      -2.894649      0.579836     -2.367904
  C      -1.868062     -0.553789     -0.366446
  H      -0.823708      0.063259     -2.113807
  H      -2.924380      0.491415     -3.459200
  H      -3.860829      0.241595     -1.982941
  H      -1.249166     -2.305159     -2.166020
  H      -1.950921     -1.615980     -3.459933
  H      -0.813636     -1.245532      1.048305
28
Coordinates from ORCA-job 1_Cu2_Cys2 E -4720.176634894017
  Cu     -0.862117      2.408778     -0.673371
  Cu      0.987528      2.580263      0.777136
  S       2.603973      2.607440      2.259990
  O       3.048848     -0.309686     -0.054193
  O       4.396086     -0.429255      1.743221
  N       1.770741     -1.375713      2.797792
  C       2.017797     -0.120261      2.077637
  C       2.186214      1.019095      3.071040
  C       3.286208     -0.286644      1.271580
  H       1.205797      0.150950      1.378086
  H       1.243710      1.116881      3.624414
  H       2.971823      0.752791      3.784189
  H       1.523360     -2.104080      2.123787
  H       0.931280     -1.241878      3.365567
  H       3.907122     -0.441036     -0.504094
  S      -2.648458      2.337614     -1.906665
  O      -0.720878     -1.127464      0.068084
  O      -2.825139     -0.374364      0.360068
  N      -2.035590     -1.697874     -2.452999
  C      -1.825237     -0.361917     -1.868803
  C      -2.909832      0.580104     -2.354453
  C      -1.869206     -0.564705     -0.367280
  H      -0.836306      0.065685     -2.116037
  H      -2.945975      0.499049     -3.446144
  H      -3.872996      0.236673     -1.966481
  H      -1.254525     -2.301262     -2.188833
  H      -1.976993     -1.604572     -3.467385
  H      -0.807598     -1.268059      1.035744
28
Coordinates from ORCA-job 1_Cu2_Cys2 E -4720.176656115075
  Cu     -0.864523      2.407593     -0.673209
  Cu      0.992375      2.581622      0.767359
  S       2.611459      2.603111      2.246861
  O       3.078676     -0.296122     -0.049979
  O       4.401097     -0.449274      1.763318
  N       1.766821     -1.375935      2.794667
  C       2.020926     -0.124812      2.070329
  C       2.179472      1.019581      3.060440
  C       3.298581     -0.292361      1.278725
  H       1.216272      0.143002      1.361098
  H       1.230339      1.122224      3.601654
  H       2.955655      0.754438      3.784358
  H       1.525042     -2.107791      2.122494
  H       0.923235     -1.238630      3.355270
  H       3.942039     -0.425520     -0.490582
  S      -2.656592      2.337179     -1.900767
  O      -0.728730     -1.130119      0.072993
  O      -2.833101     -0.376787      0.363476
  N      -2.034522     -1.695665     -2.450015
  C      -1.829080     -0.359680     -1.864007
  C      -2.914744      0.580062     -2.350736
  C      -1.876081     -0.565806     -0.362884
  H      -0.840747      0.070923     -2.108230
  H      -2.949328      0.499572     -3.442531
  H      -3.877974      0.234661     -1.964590
  H      -1.249347     -2.295172     -2.189521
  H      -1.980153     -1.600418     -3.464435
  H      -0.817431     -1.273325      1.040044
28
Coordinates from ORCA-job 1_Cu2_Cys2 E -4720.176667214922
  Cu     -0.867361      2.406614     -0.669118
  Cu      0.988538      2.588800      0.770562
  S       2.606280      2.606130      2.249007
  O       3.083267     -0.308137     -0.053154
  O       4.406008     -0.440291      1.761491
  N       1.763775     -1.376196      2.784271
  C       2.022406     -0.124385      2.063144
  C       2.179900      1.017857      3.056642
  C       3.302788     -0.292545      1.275384
  H       1.220906      0.145792      1.351072
  H       1.231399      1.115899      3.599927
  H       2.957477      0.751277      3.778544
  H       1.521383     -2.105734      2.109937
  H       0.920630     -1.238069      3.345138
  H       3.947427     -0.435892     -0.492496
  S      -2.660791      2.335935     -1.900678
  O      -0.743584     -1.132588      0.086713
  O      -2.847118     -0.372667      0.363913
  N      -2.022977     -1.694889     -2.443563
  C      -1.827364     -0.357573     -1.857244
  C      -2.911818      0.578745     -2.352897
  C      -1.886200     -0.564104     -0.356481
  H      -0.838366      0.076493     -2.092787
  H      -2.938749      0.497178     -3.444847
  H      -3.877152      0.230987     -1.974083
  H      -1.233640     -2.288415     -2.182119
  H      -1.968718     -1.599504     -3.457974
  H      -0.838708     -1.274166      1.053298
28
Coordinates from ORCA-job 1_Cu2_Cys2 E -4720.176660262861
  Cu     -0.871761      2.407103     -0.672189
  Cu      0.986507      2.587888      0.763981
  S       2.604600      2.600879      2.241118
  O       3.108392     -0.301112     -0.048428
  O       4.410729     -0.451222      1.779363
  N       1.762641     -1.380430      2.780756
  C       2.024847     -0.130948      2.057178
  C       2.168427      1.015310      3.048641
  C       3.313409     -0.297189      1.282018
  H       1.229637      0.133737      1.336620
  H       1.212587      1.113629      3.579205
  H       2.935854      0.751787      3.782522
  H       1.527800     -2.113463      2.107630
  H       0.914431     -1.241602      3.333535
  H       3.976554     -0.427647     -0.480358
  S      -2.666300      2.337153     -1.904095
  O      -0.736946     -1.120474      0.086374
  O      -2.843103     -0.368868      0.369243
  N      -2.025539     -1.694104     -2.436587
  C      -1.830626     -0.354421     -1.855389
  C      -2.918238      0.578886     -2.349838
  C      -1.883537     -0.558059     -0.353753
  H      -0.843257      0.080454     -2.096116
  H      -2.949895      0.493854     -3.441369
  H      -3.881708      0.231602     -1.965809
  H      -1.234351     -2.285126     -2.175252
  H      -1.975050     -1.602975     -3.451555
  H      -0.826466     -1.258090      1.054153
28
Coordinates from ORCA-job 1_Cu2_Cys2 E -4720.176680854206
  Cu     -0.873600      2.407729     -0.672859
  Cu      0.983080      2.586045      0.766045
  S       2.602586      2.600773      2.241066
  O       3.112238     -0.305085     -0.043365
  O       4.414297     -0.447972      1.785136
  N       1.769433     -1.380919      2.788516
  C       2.028303     -0.132115      2.062039
  C       2.168465      1.016424      3.051024
  C       3.316933     -0.297457      1.287059
  H       1.232279      0.128789      1.341271
  H       1.211729      1.113528      3.580209
  H       2.935300      0.755637      3.786529
  H       1.535190     -2.116039      2.117413
  H       0.921102     -1.242477      3.341271
  H       3.980427     -0.432459     -0.474957
  S      -2.665988      2.338958     -1.911018
  O      -0.730777     -1.115946      0.076044
  O      -2.837964     -0.369946      0.366190
  N      -2.033361     -1.693757     -2.441868
  C      -1.834471     -0.354007     -1.861911
  C      -2.924177      0.580069     -2.350654
  C      -1.880517     -0.557070     -0.360043
  H      -0.848070      0.079939     -2.107904
  H      -2.964074      0.492816     -3.441707
  H      -3.885187      0.235134     -1.958554
  H      -1.243784     -2.286990     -2.180646
  H      -1.983245     -1.603749     -3.456926
  H      -0.816508     -1.253303      1.044201
28
Coordinates from ORCA-job 1_Cu2_Cys2 E -4720.176682796317
  Cu     -0.874225      2.407742     -0.669106
  Cu      0.984201      2.588648      0.766871
  S       2.605313      2.600893      2.240127
  O       3.108612     -0.313146     -0.042313
  O       4.413535     -0.443814      1.785381
  N       1.767769     -1.379358      2.789906
  C       2.027958     -0.130551      2.063364
  C       2.169212      1.018290      3.051449
  C       3.315412     -0.298061      1.287966
  H       1.231902      0.130755      1.342822
  H       1.212454      1.116591      3.580439
  H       2.935690      0.757698      3.787499
  H       1.531908     -2.114057      2.118843
  H       0.919357     -1.239793      3.342311
  H       3.976167     -0.442249     -0.474689
  S      -2.667594      2.338229     -1.907122
  O      -0.726064     -1.116170      0.071714
  O      -2.834128     -0.374116      0.366117
  N      -2.032626     -1.693332     -2.445273
  C      -1.834407     -0.354297     -1.863474
  C      -2.926034      0.579835     -2.348813
  C      -1.877581     -0.559171     -0.361792
  H      -0.848804      0.081112     -2.110599
  H      -2.967695      0.494688     -3.439942
  H      -3.885882      0.233766     -1.955095
  H      -1.243040     -2.286875     -2.184656
  H      -1.982092     -1.601637     -3.460187
  H      -0.809678     -1.255068      1.039851
28
Coordinates from ORCA-job 1_Cu2_Cys2 E -4720.176678764062
  Cu     -0.874753      2.406925     -0.665103
  Cu      0.984907      2.591735      0.768044
  S       2.607939      2.600687      2.238647
  O       3.105903     -0.316836     -0.043742
  O       4.412015     -0.443759      1.783598
  N       1.765249     -1.378426      2.788204
  C       2.026911     -0.129425      2.062041
  C       2.169352      1.019141      3.050128
  C       3.313690     -0.298742      1.286559
  H       1.230980      0.132752      1.341594
  H       1.212471      1.118585      3.578718
  H       2.935289      0.757724      3.786505
  H       1.527658     -2.112244      2.116714
  H       0.916757     -1.237753      3.340350
  H       3.973175     -0.447349     -0.476249
  S      -2.668324      2.337341     -1.904660
  O      -0.726086     -1.117301      0.073182
  O      -2.834265     -0.375363      0.366510
  N      -2.028073     -1.692677     -2.445818
  C      -1.832967     -0.353950     -1.862306
  C      -2.925957      0.578984     -2.347322
  C      -1.877241     -0.560008     -0.360850
  H      -0.847905      0.083690     -2.107990
  H      -2.967366      0.494677     -3.438495
  H      -3.885247      0.231740     -1.953439
  H      -1.238599     -2.285686     -2.183615
  H      -1.974645     -1.599665     -3.460494
  H      -0.811229     -1.258246      1.040890
28
Coordinates from ORCA-job 1_Cu2_Cys2 E -4720.176672726288
  Cu     -0.878536      2.403867     -0.657482
  Cu      0.985786      2.594264      0.767682
  S       2.615030      2.600373      2.230619
  O       3.099635     -0.324486     -0.044270
  O       4.409695     -0.447673      1.780737
  N       1.763297     -1.375039      2.792530
  C       2.025933     -0.127745      2.063306
  C       2.172705      1.022971      3.048159
  C       3.310522     -0.302094      1.285695
  H       1.228798      0.134162      1.343986
  H       1.216792      1.126720      3.577664
  H       2.939091      0.762129      3.784299
  H       1.522102     -2.109136      2.122504
  H       0.915874     -1.231420      3.345690
  H       3.965886     -0.458047     -0.477957
  S      -2.674056      2.335801     -1.896349
  O      -0.726369     -1.121288      0.071761
  O      -2.836160     -0.383893      0.365025
  N      -2.020573     -1.689404     -2.452244
  C      -1.832024     -0.352599     -1.862505
  C      -2.927793      0.578365     -2.345325
  C      -1.877914     -0.564461     -0.361866
  H      -0.848315      0.090273     -2.104463
  H      -2.967737      0.498135     -3.436820
  H      -3.886252      0.227206     -1.953052
  H      -1.231047     -2.281518     -2.188150
  H      -1.961609     -1.591858     -3.466204
  H      -0.813123     -1.267053      1.038630
28
Coordinates from ORCA-job 1_Cu2_Cys2 E -4720.176666114462
  Cu     -0.885371      2.399317     -0.645276
  Cu      0.987974      2.597492      0.765092
  S       2.627539      2.599287      2.215712
  O       3.093739     -0.330833     -0.045406
  O       4.405205     -0.461186      1.778155
  N       1.757820     -1.369386      2.798763
  C       2.023783     -0.126129      2.063552
  C       2.177168      1.028656      3.042754
  C       3.306247     -0.309054      1.284439
  H       1.226029      0.135429      1.344826
  H       1.222262      1.140425      3.572413
  H       2.943043      0.768274      3.779566
  H       1.512357     -2.104952      2.131812
  H       0.911549     -1.220201      3.352305
  H       3.959090     -0.469169     -0.479498
  S      -2.685414      2.332665     -1.878730
  O      -0.726531     -1.125734      0.071541
  O      -2.840541     -0.399964      0.363173
  N      -2.008881     -1.684274     -2.461093
  C      -1.830316     -0.350689     -1.861479
  C      -2.929728      0.577420     -2.341576
  C      -1.879483     -0.571939     -0.362245
  H      -0.848494      0.099897     -2.097022
  H      -2.965018      0.505284     -3.433762
  H      -3.887652      0.218612     -1.955042
  H      -1.219025     -2.274922     -2.194661
  H      -1.942073     -1.579686     -3.473893
  H      -0.815641     -1.278088      1.037181
28
Coordinates from ORCA-job 1_Cu2_Cys2 E -4720.176659828018
  Cu     -0.891267      2.396013     -0.634320
  Cu      0.988640      2.598470      0.765374
  S       2.638369      2.599044      2.204408
  O       3.079083     -0.334450     -0.048896
  O       4.398401     -0.473436      1.768154
  N       1.753895     -1.363816      2.806566
  C       2.020216     -0.123945      2.065703
  C       2.184151      1.033407      3.040232
  C       3.297857     -0.314395      1.279927
  H       1.219220      0.138344      1.350986
  H       1.232627      1.152435      3.574252
  H       2.952710      0.772249      3.773890
  H       1.503159     -2.100705      2.143018
  H       0.910686     -1.210246      3.363551
  H       3.941933     -0.477072     -0.486682
  S      -2.693503      2.329733     -1.863814
  O      -0.726555     -1.129461      0.072188
  O      -2.845222     -0.415873      0.359521
  N      -1.997981     -1.680116     -2.469647
  C      -1.826987     -0.349666     -1.861159
  C      -2.928138      0.576763     -2.339999
  C      -1.880660     -0.579383     -0.363283
  H      -0.846196      0.106447     -2.090212
  H      -2.957848      0.511999     -3.432808
  H      -3.886337      0.211223     -1.960489
  H      -1.208940     -2.270564     -2.200347
  H      -1.923159     -1.569665     -3.481265
  H      -0.818516     -1.286780      1.036751
28
Coordinates from ORCA-job 1_Cu2_Cys2 E -4720.176659438577
  Cu     -0.916273      2.385614     -0.597982
  Cu      0.988056      2.600400      0.762317
  S       2.673072      2.598089      2.159988
  O       3.039536     -0.356387     -0.053968
  O       4.379245     -0.514461      1.745800
  N       1.742228     -1.342496      2.839488
  C       2.011561     -0.118102      2.074511
  C       2.207302      1.051689      3.028343
  C       3.275139     -0.336373      1.271719
  H       1.202341      0.143448      1.369363
  H       1.266205      1.195242      3.574265
  H       2.983173      0.790578      3.754090
  H       1.476632     -2.087749      2.191229
  H       0.908349     -1.171618      3.405258
  H       3.894796     -0.514445     -0.501474
  S      -2.728747      2.319268     -1.810199
  O      -0.723170     -1.140524      0.067354
  O      -2.859116     -0.476881      0.345235
  N      -1.963079     -1.662332     -2.503147
  C      -1.819026     -0.344064     -1.862587
  C      -2.928891      0.575574     -2.332744
  C      -1.883996     -0.606214     -0.370332
  H      -0.843334      0.132418     -2.070637
  H      -2.943986      0.536613     -3.427115
  H      -3.885899      0.185521     -1.974975
  H      -1.173438     -2.250210     -2.229917
  H      -1.867608     -1.529542     -3.510333
  H      -0.821436     -1.316506      1.028049
28
Coordinates from ORCA-job 1_Cu2_Cys2 E -4720.176677415060
  Cu     -0.925905      2.386450     -0.590520
  Cu      0.983295      2.599157      0.762822
  S       2.677297      2.598636      2.149882
  O       3.035149     -0.367097     -0.049172
  O       4.376632     -0.524123      1.749168
  N       1.738878     -1.336141      2.852281
  C       2.010741     -0.117220      2.079761
  C       2.212237      1.056956      3.026944
  C       3.272554     -0.343465      1.275933
  H       1.201269      0.143329      1.374559
  H       1.273498      1.204930      3.575671
  H       2.990074      0.797228      3.751005
  H       1.471899     -2.085299      2.209186
  H       0.906128     -1.159957      3.417967
  H       3.889143     -0.529733     -0.497378
  S      -2.738813      2.318181     -1.800585
  O      -0.710548     -1.140421      0.054005
  O      -2.849251     -0.490978      0.342945
  N      -1.962715     -1.658271     -2.514113
  C      -1.818904     -0.342471     -1.868312
  C      -2.933641      0.575841     -2.329296
  C      -1.876352     -0.611346     -0.376977
  H      -0.845435      0.137323     -2.078772
  H      -2.954184      0.540755     -3.423721
  H      -3.887569      0.180448     -1.969036
  H      -1.170909     -2.245695     -2.246244
  H      -1.871332     -1.521318     -3.521106
  H      -0.803596     -1.319149      1.014702
28
Coordinates from ORCA-job 1_Cu2_Cys2 E -4720.176821835019
  Cu     -0.983229      2.386735     -0.545017
  Cu      0.960016      2.588012      0.759168
  S       2.706963      2.599481      2.081225
  O       3.000699     -0.448684     -0.015356
  O       4.362533     -0.568568      1.769938
  N       1.724967     -1.292474      2.938020
  C       2.007966     -0.109814      2.116029
  C       2.244751      1.093128      3.017311
  C       3.255693     -0.385653      1.304319
  H       1.194518      0.141125      1.412081
  H       1.320802      1.271643      3.581461
  H       3.034537      0.844557      3.732147
  H       1.444545     -2.065794      2.330609
  H       0.902094     -1.081772      3.505687
  H       3.844876     -0.639719     -0.470559
  S      -2.804810      2.308679     -1.734181
  O      -0.642125     -1.155830     -0.034874
  O      -2.789868     -0.578085      0.325670
  N      -1.954324     -1.627063     -2.586889
  C      -1.819679     -0.329048     -1.903078
  C      -2.965973      0.577353     -2.306462
  C      -1.832926     -0.647344     -0.420656
  H      -0.861764      0.176398     -2.123232
  H      -3.017401      0.569851     -3.400500
  H      -3.900165      0.147083     -1.934188
  H      -1.144161     -2.205781     -2.358060
  H      -1.893501     -1.458588     -3.591303
  H      -0.705396     -1.363278      0.922289
28
Coordinates from ORCA-job 1_Cu2_Cys2 E -4720.176895006311
  Cu     -0.980704      2.402178     -0.564932
  Cu      0.954887      2.584750      0.757897
  S       2.689528      2.602075      2.098039
  O       3.010880     -0.464295     -0.005386
  O       4.370562     -0.542038      1.784727
  N       1.724395     -1.296361      2.933859
  C       2.010450     -0.110522      2.118122
  C       2.236529      1.090063      3.024791
  C       3.263126     -0.380345      1.313784
  H       1.201638      0.140999      1.408653
  H       1.309706      1.258443      3.587503
  H       3.025991      0.843067      3.740867
  H       1.446170     -2.067946      2.323518
  H       0.899142     -1.087620      3.498603
  H       3.856563     -0.652494     -0.458822
  S      -2.798761      2.316755     -1.759187
  O      -0.627157     -1.165592     -0.056603
  O      -2.757247     -0.545517      0.339002
  N      -1.965953     -1.631590     -2.576318
  C      -1.820948     -0.326450     -1.907195
  C      -2.972419      0.577478     -2.303202
  C      -1.814793     -0.636075     -0.423111
  H      -0.865143      0.175036     -2.145324
  H      -3.042324      0.555375     -3.396056
  H      -3.901126      0.154700     -1.909534
  H      -1.143866     -2.201487     -2.369375
  H      -1.940523     -1.470532     -3.583366
  H      -0.678965     -1.375504      0.900644
28
Coordinates from ORCA-job 1_Cu2_Cys2 E -4720.176940908807
  Cu     -1.003682      2.394768     -0.540045
  Cu      0.954417      2.585873      0.745293
  S       2.712350      2.598823      2.054238
  O       3.010212     -0.495747      0.007222
  O       4.365754     -0.571710      1.800464
  N       1.713971     -1.275180      2.961385
  C       2.010534     -0.106423      2.125295
  C       2.248461      1.108297      3.010375
  C       3.261018     -0.401253      1.326023
  H       1.203869      0.140512      1.411760
  H       1.324243      1.294445      3.571747
  H       3.037339      0.867522      3.729100
  H       1.430445     -2.054422      2.363472
  H       0.889429     -1.050353      3.520904
  H       3.855133     -0.697133     -0.441994
  S      -2.834719      2.307177     -1.714441
  O      -0.619337     -1.186507     -0.079610
  O      -2.752272     -0.586768      0.332810
  N      -1.947636     -1.612186     -2.606267
  C      -1.821903     -0.318839     -1.911235
  C      -2.986326      0.575901     -2.289662
  C      -1.811200     -0.657148     -0.433361
  H      -0.873516      0.201610     -2.138335
  H      -3.057447      0.572768     -3.382606
  H      -3.908591      0.133474     -1.902534
  H      -1.116582     -2.173220     -2.411510
  H      -1.925640     -1.430066     -3.609817
  H      -0.668685     -1.417664      0.872930
28
Coordinates from ORCA-job 1_Cu2_Cys2 E -4720.176906863691
  Cu     -0.995023      2.390181     -0.545640
  Cu      0.960733      2.590032      0.740135
  S       2.710390      2.595478      2.057368
  O       3.017665     -0.478838     -0.004745
  O       4.368867     -0.567500      1.791476
  N       1.719331     -1.286568      2.940827
  C       2.012103     -0.109241      2.114563
  C       2.241565      1.101815      3.007588
  C       3.264950     -0.394174      1.316050
  H       1.205195      0.138128      1.401518
  H       1.312908      1.283578      3.563238
  H       3.026429      0.862008      3.731101
  H       1.437381     -2.059647      2.333820
  H       0.891872     -1.069732      3.499639
  H       3.865408     -0.674599     -0.451478
  S      -2.829024      2.305511     -1.718824
  O      -0.646197     -1.182337     -0.045821
  O      -2.782235     -0.572289      0.335788
  N      -1.937088     -1.615819     -2.589240
  C      -1.821121     -0.320162     -1.897884
  C      -2.978660      0.574774     -2.296695
  C      -1.831067     -0.650320     -0.417894
  H      -0.869631      0.200017     -2.113287
  H      -3.029885      0.573683     -3.390667
  H      -3.908092      0.135293     -1.923947
  H      -1.109752     -2.176988     -2.379418
  H      -1.898062     -1.436206     -3.592861
  H      -0.709325     -1.409528      0.906889
28
Coordinates from ORCA-job 1_Cu2_Cys2 E -4720.176931467564
  Cu     -1.008898      2.392383     -0.540118
  Cu      0.951261      2.584515      0.740461
  S       2.710076      2.596062      2.045403
  O       3.002166     -0.503638      0.003504
  O       4.365378     -0.569454      1.791705
  N       1.719244     -1.278075      2.960804
  C       2.011230     -0.107133      2.125034
  C       2.249401      1.108885      3.008726
  C       3.258434     -0.401912      1.321427
  H       1.201099      0.138405      1.414908
  H       1.325895      1.294421      3.571530
  H       3.040487      0.872859      3.726715
  H       1.431436     -2.054617      2.360906
  H       0.895351     -1.054660      3.522308
  H       3.846505     -0.706461     -0.446517
  S      -2.842002      2.304840     -1.712926
  O      -0.627694     -1.185806     -0.069523
  O      -2.762041     -0.583925      0.332986
  N      -1.933903     -1.608578     -2.603848
  C      -1.820098     -0.315699     -1.906704
  C      -2.986338      0.574008     -2.292293
  C      -1.816839     -0.654539     -0.428767
  H      -0.873332      0.210954     -2.126872
  H      -3.047612      0.575287     -3.385745
  H      -3.909829      0.128420     -1.912139
  H      -1.101335     -2.165694     -2.404245
  H      -1.905059     -1.423506     -3.606815
  H      -0.683342     -1.420793      0.881695
28
Coordinates from ORCA-job 1_Cu2_Cys2 E -4720.176949835749
  Cu     -1.008770      2.395179     -0.543328
  Cu      0.950638      2.583316      0.739763
  S       2.707824      2.595447      2.047130
  O       3.005159     -0.500780      0.004154
  O       4.366180     -0.569026      1.793866
  N       1.719796     -1.279779      2.960411
  C       2.011650     -0.108275      2.125364
  C       2.248729      1.107423      3.009832
  C       3.259689     -0.401434      1.322547
  H       1.201800      0.137287      1.414913
  H       1.325167      1.291821      3.572865
  H       3.040254      0.871945      3.727489
  H       1.431469     -2.055827      2.360113
  H       0.896142     -1.056558      3.522300
  H       3.850210     -0.702418     -0.445006
  S      -2.841304      2.306182     -1.717078
  O      -0.626513     -1.184171     -0.070401
  O      -2.760073     -0.580994      0.333440
  N      -1.936459     -1.610052     -2.601971
  C      -1.820562     -0.315904     -1.907381
  C      -2.986746      0.574037     -2.292817
  C      -1.815663     -0.652839     -0.429130
  H      -0.873689      0.209563     -2.129865
  H      -3.049396      0.573640     -3.386179
  H      -3.910061      0.129767     -1.910741
  H      -1.103000     -2.166647     -2.404556
  H      -1.911501     -1.426648     -3.605335
  H      -0.681333     -1.417703      0.881200
28
Coordinates from ORCA-job 1_Cu2_Cys2 E -4720.176960962347
  Cu     -1.010926      2.397026     -0.543459
  Cu      0.948893      2.582403      0.739546
  S       2.706059      2.595196      2.046377
  O       3.000631     -0.501643      0.002962
  O       4.365019     -0.569105      1.790025
  N       1.720789     -1.280439      2.961195
  C       2.011158     -0.108479      2.126053
  C       2.250255      1.106878      3.010438
  C       3.257606     -0.401639      1.320817
  H       1.199854      0.137524      1.417412
  H       1.328199      1.290882      3.576017
  H       3.043986      0.872034      3.725797
  H       1.429575     -2.055496      2.360961
  H       0.898826     -1.056727      3.525386
  H       3.845076     -0.703692     -0.447173
  S      -2.843495      2.305861     -1.717114
  O      -0.626634     -1.182763     -0.068680
  O      -2.761005     -0.581177      0.332481
  N      -1.933845     -1.610122     -2.601317
  C      -1.819252     -0.315578     -1.907126
  C      -2.985634      0.573529     -2.293872
  C      -1.815586     -0.652330     -0.428942
  H      -0.872554      0.210480     -2.129017
  H      -3.046168      0.574158     -3.387337
  H      -3.909217      0.128273     -1.913690
  H      -1.099570     -2.165638     -2.404306
  H      -1.909780     -1.426924     -3.604751
  H      -0.682622     -1.415942      0.882917
28
Coordinates from ORCA-job 1_Cu2_Cys2 E -4720.176960945406
  Cu     -1.012544      2.398218     -0.543591
  Cu      0.949284      2.582090      0.736537
  S       2.706284      2.593949      2.043007
  O       3.000878     -0.501356      0.001990
  O       4.364590     -0.571184      1.789335
  N       1.721004     -1.280890      2.961458
  C       2.010892     -0.109464      2.125272
  C       2.250089      1.106635      3.008652
  C       3.257347     -0.402732      1.320046
  H       1.199286      0.135849      1.416788
  H       1.327989      1.291389      3.573916
  H       3.043762      0.872568      3.724281
  H       1.428223     -2.055820      2.361789
  H       0.899850     -1.056261      3.526496
  H       3.845653     -0.703277     -0.447571
  S      -2.846859      2.305224     -1.714873
  O      -0.628611     -1.182609     -0.065648
  O      -2.763950     -0.582538      0.332228
  N      -1.930330     -1.609013     -2.600777
  C      -1.818555     -0.314761     -1.905530
  C      -2.985290      0.573138     -2.293760
  C      -1.817196     -0.652564     -0.427650
  H      -0.872160      0.212710     -2.125386
  H      -3.043442      0.575033     -3.387347
  H      -3.909132      0.126393     -1.915989
  H      -1.095066     -2.163034     -2.403769
  H      -1.906148     -1.425050     -3.604075
  H      -0.686209     -1.416090      0.885771
