28
Coordinates from ORCA-job 1_Cu2_Cys2 E -4720.176960945406
  Cu         -1.01254449174192      2.39821757031800     -0.54359073099272
  Cu          0.94928386887909      2.58208989747210      0.73653730018785
  S           2.70628355923155      2.59394926576717      2.04300654054105
  O           3.00087812216968     -0.50135602203829      0.00198998159559
  O           4.36458988527722     -0.57118358675388      1.78933460008418
  N           1.72100360493407     -1.28089041737190      2.96145757617481
  C           2.01089217372729     -0.10946420249072      2.12527238566641
  C           2.25008868660987      1.10663454740074      3.00865183350419
  C           3.25734670515026     -0.40273222073402      1.32004602099670
  H           1.19928591456704      0.13584894391550      1.41678760706534
  H           1.32798930767072      1.29138937256896      3.57391603408915
  H           3.04376203363355      0.87256837732284      3.72428146500618
  H           1.42822303002173     -2.05582006856969      2.36178941857520
  H           0.89984964778495     -1.05626095419040      3.52649582678205
  H           3.84565330065623     -0.70327693456773     -0.44757112575098
  S          -2.84685913358549      2.30522441310307     -1.71487315547763
  O          -0.62861104945575     -1.18260939765353     -0.06564771548666
  O          -2.76395026107548     -0.58253834454874      0.33222799853936
  N          -1.93033014963257     -1.60901316131045     -2.60077728525357
  C          -1.81855475647588     -0.31476099615230     -1.90553009292525
  C          -2.98528950472621      0.57313819262907     -2.29376046560424
  C          -1.81719632048645     -0.65256443924211     -0.42764959036940
  H          -0.87215956532324      0.21270953927361     -2.12538594692435
  H          -3.04344209012595      0.57503338280880     -3.38734739708293
  H          -3.90913190750756      0.12639287196376     -1.91598898373888
  H          -1.09506591758284     -2.16303401397036     -2.40376873963438
  H          -1.90614775078700     -1.42504961971113     -3.60407495038278
  H          -0.68620871680693     -1.41609041623839      0.88577112081569
