29
Coordinates from ORCA-job 2_Cu3_Cys2 E -6359.759704887418
  Cu          0.24178144144268      0.15309310786585     -1.23535361664541
  Cu          1.30950773906964      2.19697970309983     -1.13714649739330
  S          -0.94593974249593     -1.63698809545604     -1.58646998032875
  Cu         -0.02188490595444     -2.11233130638422      0.31063687737180
  S           0.76694957599434     -2.92136335752319      2.12458997844555
  C           0.17964004008941     -1.85495559647559      3.48527202524497
  H          -0.89005612475831     -1.64306722359788      3.38245097155865
  H           0.32619897599237     -2.41103240582199      4.41700123652493
  H           2.00671287947735     -0.72788740238514      3.60447245517687
  C           0.92710442289243     -0.52794347000989      3.62254284609428
  C           0.58843672435840      0.35115714151145      2.43541887359916
  O          -0.51426831912569      0.85045839437728      2.26253188382803
  O           1.62696870418632      0.53004932844535      1.61640811712713
  H           1.29105645388680      0.93653455989427      0.74288204656841
  N           0.47507874432979      0.13125911873594      4.85077991988264
  H           0.74163859669819     -0.45940858763241      5.63718995719838
  H           0.99112515456793      1.00234036098002      4.97419677445894
  C          -2.64536462851024     -1.24934245448144     -1.01342851809968
  H          -3.29382104550498     -1.20633366406054     -1.88972199353752
  H          -2.97818071512770     -2.07373048924154     -0.37584150050198
  H          -1.89264842367606      0.10255332279829      0.47517445832158
  C          -2.74412660743141      0.04283590064285     -0.22546140955285
  C          -2.67998073504341      1.25534814433146     -1.13184614178941
  O          -2.81440352449266      1.25862519840031     -2.33841166732687
  O          -2.53616227237521      2.38006862389459     -0.40583465862980
  H          -2.54063002167533      3.13385795706894     -1.02730477009463
  N          -4.05086678109243      0.10628095952933      0.44739209631214
  H          -4.09432863453887     -0.66580432616350      1.11307554977864
  H          -4.08882654418280      0.95540242065755      1.01102766040794
