29
Coordinates from ORCA-job 2_Cu3_Cys2 E -6359.633338557001
  Cu      0.628424     -0.304220     -2.275237
  Cu      3.030437      0.354268     -3.139545
  S      -1.696671     -0.829317     -1.588103
  Cu     -0.704779     -0.895075      0.613281
  S       0.175531     -1.002383      2.814109
  C       0.850756     -1.084691      4.502213
  H       0.133414     -0.595394      5.171100
  H       0.907537     -2.140611      4.788419
  H       2.931830     -0.954956      3.934665
  C       2.231598     -0.433279      4.598412
  C       2.206784      1.028752      4.193748
  O       1.200942      1.598635      3.787257
  O       3.412641      1.643848      4.289283
  H       3.368384      2.582065      4.006446
  N       2.722881     -0.501383      5.976093
  H       2.758617     -1.474349      6.277881
  H       3.682225     -0.158235      6.013471
  C      -3.339326     -1.056793     -2.337997
  H      -3.316749     -0.597431     -3.332923
  H      -3.500328     -2.132271     -2.470387
  H      -4.461722     -0.947144     -0.494627
  C      -4.450326     -0.455632     -1.475095
  C      -4.260503      1.032505     -1.248560
  O      -3.295864      1.660632     -1.668855
  O      -5.242006      1.602713     -0.504868
  H      -5.083802      2.560244     -0.362348
  N      -5.747668     -0.640430     -2.128361
  H      -5.910222     -1.633754     -2.289300
  H      -6.491322     -0.329657     -1.503949
29
Coordinates from ORCA-job 2_Cu3_Cys2 E -6359.648359720394
  Cu      0.625507     -0.332883     -2.304642
  Cu      3.031803      0.261639     -3.146918
  S      -1.673586     -0.807446     -1.595976
  Cu     -0.718906     -0.858578      0.590691
  S       0.160815     -0.945613      2.770744
  C       0.852114     -1.008594      4.461974
  H       0.159899     -0.510010      5.144250
  H       0.896754     -2.062476      4.744883
  H       2.919137     -0.933793      3.899085
  C       2.246946     -0.408565      4.593416
  C       2.328498      1.075471      4.289005
  O       1.399708      1.786494      3.962630
  O       3.582934      1.541011      4.439642
  H       3.610522      2.495357      4.244797
  N       2.715373     -0.568807      5.977508
  H       2.699633     -1.556632      6.220908
  H       3.687831     -0.276404      6.042516
  C      -3.330277     -1.026207     -2.324134
  H      -3.323124     -0.598124     -3.328243
  H      -3.494258     -2.101500     -2.416630
  H      -4.420998     -0.874538     -0.485623
  C      -4.455900     -0.427625     -1.490444
  C      -4.386350      1.079166     -1.334064
  O      -3.531132      1.800077     -1.807614
  O      -5.413926      1.548456     -0.603065
  H      -5.349983      2.517210     -0.520931
  N      -5.743151     -0.731683     -2.129361
  H      -5.833731     -1.739829     -2.230368
  H      -6.501441     -0.438919     -1.517814
29
Coordinates from ORCA-job 2_Cu3_Cys2 E -6359.660439156696
  Cu      0.614100     -0.333153     -2.299878
  Cu      3.014416      0.232796     -3.052759
  S      -1.621917     -0.787905     -1.581422
  Cu     -0.766678     -0.840843      0.580719
  S       0.095890     -0.919945      2.722276
  C       0.809596     -0.965807      4.408068
  H       0.144170     -0.461320      5.108795
  H       0.867720     -2.016560      4.693173
  H       2.846362     -0.909441      3.809189
  C       2.200461     -0.392356      4.537603
  C       2.305675      1.093430      4.278248
  O       1.420990      1.866470      4.011948
  O       3.586534      1.465099      4.391873
  H       3.628441      2.421570      4.228871
  N       2.656264     -0.588886      5.928518
  H       2.619727     -1.583473      6.136736
  H       3.633230     -0.320308      6.001165
  C      -3.288002     -1.007359     -2.281374
  H      -3.301629     -0.587655     -3.285622
  H      -3.463131     -2.080627     -2.348767
  H      -4.325868     -0.840615     -0.434490
  C      -4.402327     -0.418081     -1.450895
  C      -4.366734      1.087796     -1.330226
  O      -3.576363      1.847652     -1.830337
  O      -5.378725      1.488356     -0.554460
  H      -5.337062      2.457112     -0.496027
  N      -5.685057     -0.760005     -2.092972
  H      -5.742522     -1.771857     -2.167835
  H      -6.446851     -0.477428     -1.483895
29
Coordinates from ORCA-job 2_Cu3_Cys2 E -6359.675057659604
  Cu      0.614101     -0.334426     -2.269365
  Cu      3.001188      0.177478     -2.861668
  S      -1.519999     -0.765879     -1.546207
  Cu     -0.842462     -0.837438      0.572976
  S      -0.023426     -0.921199      2.655630
  C       0.720120     -0.948781      4.326361
  H       0.079900     -0.441773      5.048235
  H       0.795527     -1.997909      4.614924
  H       2.723004     -0.875483      3.650668
  C       2.112890     -0.386747      4.427364
  C       2.217056      1.107057      4.218785
  O       1.349060      1.923985      4.070263
  O       3.517635      1.430596      4.288049
  H       3.548259      2.398510      4.188427
  N       2.591736     -0.627800      5.807537
  H       2.551056     -1.631365      5.970415
  H       3.573522     -0.372429      5.863904
  C      -3.195224     -0.988939     -2.209826
  H      -3.232071     -0.577034     -3.216331
  H      -3.381932     -2.062159     -2.252953
  H      -4.149030     -0.767913     -0.333103
  C      -4.291435     -0.398464     -1.363581
  C      -4.300868      1.111921     -1.309548
  O      -3.612288      1.895574     -1.905392
  O      -5.297069      1.479114     -0.493365
  H      -5.299664      2.453068     -0.507299
  N      -5.580178     -0.802941     -1.962778
  H      -5.596700     -1.819684     -1.986296
  H      -6.331997     -0.522287     -1.339603
29
Coordinates from ORCA-job 2_Cu3_Cys2 E -6359.687765363344
  Cu      0.621435     -0.325193     -2.225477
  Cu      2.972659      0.156553     -2.630564
  S      -1.398148     -0.752624     -1.501025
  Cu     -0.927327     -0.855777      0.562784
  S      -0.177740     -0.956993      2.585675
  C       0.593561     -0.965836      4.238251
  H      -0.035515     -0.465703      4.974655
  H       0.688171     -2.013080      4.529961
  H       2.571094     -0.845030      3.485418
  C       1.988388     -0.389140      4.300280
  C       2.058693      1.114379      4.128694
  O       1.174936      1.927424      4.064097
  O       3.365080      1.454791      4.077217
  H       3.363279      2.427214      3.997613
  N       2.511419     -0.651036      5.659824
  H       2.489973     -1.659902      5.793810
  H       3.492361     -0.385072      5.688261
  C      -3.078586     -0.986794     -2.134391
  H      -3.136387     -0.576211     -3.141220
  H      -3.268999     -2.061119     -2.167524
  H      -3.955730     -0.721573     -0.223008
  C      -4.153572     -0.390790     -1.257458
  C      -4.181120      1.123827     -1.255062
  O      -3.545024      1.899532     -1.919354
  O      -5.096406      1.512535     -0.345021
  H      -5.096123      2.487679     -0.391131
  N      -5.455970     -0.825097     -1.801770
  H      -5.455357     -1.843270     -1.789920
  H      -6.188337     -0.537039     -1.157394
29
Coordinates from ORCA-job 2_Cu3_Cys2 E -6359.692970846441
  Cu      0.640093     -0.314652     -2.167856
  Cu      2.937961      0.164505     -2.399451
  S      -1.281091     -0.756637     -1.443089
  Cu     -0.999114     -0.895196      0.574815
  S      -0.330516     -1.037130      2.552665
  C       0.478045     -1.028884      4.177446
  H      -0.146040     -0.529224      4.919349
  H       0.591115     -2.071840      4.481364
  H       2.419355     -0.838970      3.312094
  C       1.867770     -0.417634      4.162927
  C       1.848615      1.086962      3.995512
  O       0.903743      1.836561      4.073635
  O       3.126071      1.536644      3.877335
  H       3.063066      2.511473      3.857845
  N       2.493075     -0.663938      5.476490
  H       2.530189     -1.673352      5.607485
  H       3.462032     -0.352942      5.441571
  C      -2.964217     -0.996536     -2.060986
  H      -3.035554     -0.575223     -3.065291
  H      -3.162589     -2.071738     -2.103854
  H      -3.747473     -0.672740     -0.105108
  C      -3.999891     -0.380883     -1.138260
  C      -4.001805      1.133402     -1.193253
  O      -3.440937      1.847672     -1.992589
  O      -4.883525      1.610464     -0.278424
  H      -4.908760      2.579117     -0.410070
  N      -5.336982     -0.813552     -1.578844
  H      -5.356730     -1.831718     -1.525900
  H      -6.025195     -0.487355     -0.901335
29
Coordinates from ORCA-job 2_Cu3_Cys2 E -6359.696344893466
  Cu      0.643640     -0.267053     -2.139601
  Cu      2.941200      0.184548     -2.376444
  S      -1.280097     -0.746558     -1.420563
  Cu     -0.999556     -0.887364      0.621052
  S      -0.355465     -1.071493      2.612360
  C       0.474108     -1.067738      4.224646
  H      -0.150942     -0.568980      4.966599
  H       0.596226     -2.109698      4.529669
  H       2.387335     -0.819538      3.296716
  C       1.854051     -0.432393      4.174606
  C       1.778319      1.073156      4.042660
  O       0.800406      1.770895      4.203624
  O       2.997382      1.582984      3.729353
  H       2.902014      2.554843      3.699286
  N       2.545776     -0.693458      5.446757
  H       2.622148     -1.703274      5.556801
  H       3.502107     -0.349823      5.379519
  C      -2.957845     -1.003326     -2.059228
  H      -3.018327     -0.584747     -3.066566
  H      -3.150826     -2.080088     -2.107560
  H      -3.738824     -0.626375     -0.103974
  C      -3.997300     -0.374529     -1.145693
  C      -4.006341      1.135756     -1.262656
  O      -3.455739      1.801878     -2.114291
  O      -4.742838      1.684926     -0.264415
  H      -4.741787      2.652831     -0.403933
  N      -5.335013     -0.831563     -1.545148
  H      -5.355648     -1.847203     -1.453350
  H      -6.017454     -0.479960     -0.874001
29
Coordinates from ORCA-job 2_Cu3_Cys2 E -6359.699225120686
  Cu      0.647423     -0.251955     -2.109868
  Cu      2.927897      0.246359     -2.365952
  S      -1.284767     -0.768778     -1.386118
  Cu     -0.983341     -0.941583      0.687437
  S      -0.381550     -1.166295      2.704133
  C       0.496118     -1.130096      4.292541
  H      -0.126637     -0.624194      5.029770
  H       0.643217     -2.162842      4.614982
  H       2.367171     -0.826706      3.288526
  C       1.851048     -0.451695      4.181991
  C       1.693378      1.045637      4.035110
  O       0.701253      1.683263      4.319665
  O       2.826847      1.618808      3.576219
  H       2.690356      2.584475      3.549432
  N       2.618708     -0.667563      5.415444
  H       2.755122     -1.669267      5.536204
  H       3.551248     -0.274769      5.302084
  C      -2.960001     -1.019146     -2.048643
  H      -2.999054     -0.591463     -3.052402
  H      -3.159984     -2.092973     -2.114849
  H      -3.773917     -0.630332     -0.101795
  C      -3.999138     -0.371728     -1.149287
  C      -3.947954      1.136074     -1.272033
  O      -3.410768      1.754990     -2.168304
  O      -4.618701      1.736039     -0.265496
  H      -4.596123      2.700606     -0.415220
  N      -5.345877     -0.779834     -1.562040
  H      -5.415524     -1.792533     -1.468447
  H      -6.025741     -0.395842     -0.906861
29
Coordinates from ORCA-job 2_Cu3_Cys2 E -6359.706235609594
  Cu      0.693536     -0.212280     -2.003022
  Cu      2.922689      0.330861     -2.221427
  S      -1.224064     -0.791038     -1.274321
  Cu     -0.975614     -1.037494      0.843207
  S      -0.542392     -1.383711      2.891590
  C       0.476938     -1.235517      4.393786
  H      -0.122604     -0.698590      5.123371
  H       0.679026     -2.239347      4.766705
  H       2.237568     -0.895166      3.210911
  C       1.768670     -0.490505      4.118099
  C       1.461543      0.973059      3.880071
  O       0.503003      1.546054      4.354133
  O       2.384831      1.577504      3.132826
  H       2.178680      2.525424      3.059218
  N       2.673690     -0.545643      5.269544
  H       2.922953     -1.514531      5.451314
  H       3.547861     -0.077846      5.039441
  C      -2.888519     -1.017322     -1.990542
  H      -2.888311     -0.547585     -2.973438
  H      -3.095654     -2.082728     -2.112784
  H      -3.766927     -0.671949     -0.056460
  C      -3.928519     -0.364958     -1.102848
  C      -3.778290      1.140128     -1.176604
  O      -3.266962      1.727601     -2.108013
  O      -4.310904      1.758888     -0.121348
  H      -4.245239      2.722705     -0.239124
  N      -5.282146     -0.669313     -1.566870
  H      -5.434750     -1.674371     -1.512405
  H      -5.959385     -0.255676     -0.928785
29
Coordinates from ORCA-job 2_Cu3_Cys2 E -6359.712039681300
  Cu      0.780153     -0.169920     -1.900977
  Cu      2.936861      0.342288     -2.127755
  S      -1.103599     -0.798669     -1.112347
  Cu     -0.893597     -1.152469      1.064389
  S      -0.727590     -1.688145      3.120574
  C       0.454905     -1.350291      4.482174
  H      -0.126420     -0.765784      5.180923
  H       0.739515     -2.297243      4.930848
  H       2.051068     -0.996766      3.089813
  C       1.627146     -0.534490      3.993591
  C       1.103778      0.845157      3.633700
  O       0.197745      1.357160      4.252903
  O       1.755655      1.421198      2.666507
  H       1.442810      2.325182      2.515102
  N       2.663554     -0.338249      5.007249
  H       3.066961     -1.230950      5.271140
  H       3.434465      0.201149      4.621321
  C      -2.760671     -0.993502     -1.878091
  H      -2.720168     -0.471192     -2.827892
  H      -2.972860     -2.043685     -2.067699
  H      -3.697148     -0.698233      0.040617
  C      -3.790861     -0.337773     -0.997713
  C      -3.531611      1.157293     -1.010223
  O      -3.024600      1.716433     -1.957182
  O      -3.961812      1.766975      0.060229
  H      -3.851234      2.725840     -0.012475
  N      -5.147015     -0.517236     -1.506585
  H      -5.392758     -1.502524     -1.507795
  H      -5.811961     -0.074898     -0.878125
29
Coordinates from ORCA-job 2_Cu3_Cys2 E -6359.717547150678
  Cu      0.869829     -0.140069     -1.701423
  Cu      2.993573      0.507867     -1.816435
  S      -1.027382     -0.818760     -0.973415
  Cu     -0.912574     -1.242959      1.213704
  S      -0.853269     -1.801787      3.269371
  C       0.415620     -1.354560      4.514297
  H      -0.147963     -0.731455      5.197675
  H       0.723051     -2.270261      5.013692
  H       1.910719     -1.071962      2.989709
  C       1.527970     -0.549517      3.879055
  C       0.927520      0.774629      3.439507
  O       0.186332      1.394496      4.177641
  O       1.328182      1.195481      2.264522
  H       0.982655      2.076192      2.047356
  N       2.625370     -0.237988      4.790041
  H       3.092882     -1.088824      5.088115
  H       3.337429      0.306981      4.309329
  C      -2.660561     -0.983484     -1.801705
  H      -2.578859     -0.432795     -2.735545
  H      -2.873372     -2.026666     -2.035295
  H      -3.682305     -0.734665      0.089774
  C      -3.713234     -0.331707     -0.936246
  C      -3.399764      1.151933     -0.877638
  O      -2.978362      1.750653     -1.848715
  O      -3.681844      1.718570      0.274237
  H      -3.550724      2.679544      0.252199
  N      -5.052409     -0.441254     -1.501765
  H      -5.342041     -1.414808     -1.545814
  H      -5.725756      0.013830     -0.890005
29
Coordinates from ORCA-job 2_Cu3_Cys2 E -6359.728145056631
  Cu      0.974811     -0.094388     -1.382170
  Cu      3.146149      0.521221     -1.363816
  S      -0.966050     -0.777886     -0.758422
  Cu     -1.032492     -1.223477      1.415152
  S      -1.040550     -1.796164      3.458760
  C       0.378829     -1.303293      4.516492
  H      -0.104884     -0.674525      5.267116
  H       0.721418     -2.222404      4.995636
  H       1.738733     -1.159941      2.853332
  C       1.449266     -0.562801      3.734193
  C       0.904281      0.762664      3.226676
  O       0.262240      1.535062      3.918551
  O       1.294303      1.036399      1.964175
  H       0.973463      1.917021      1.681567
  N       2.604133     -0.246434      4.575940
  H       3.045730     -1.109568      4.888066
  H       3.305525      0.242645      4.022676
  C      -2.539781     -0.934776     -1.680959
  H      -2.402343     -0.388563     -2.617431
  H      -2.730241     -1.986243     -1.915599
  H      -3.723080     -0.744703      0.117389
  C      -3.681917     -0.310372     -0.895922
  C      -3.441793      1.184533     -0.757028
  O      -3.007532      1.883062     -1.657345
  O      -3.823180      1.665735      0.442335
  H      -3.727675      2.638179      0.466499
  N      -4.951407     -0.460404     -1.610751
  H      -5.181597     -1.450120     -1.694839
  H      -5.703649     -0.043803     -1.064050
29
Coordinates from ORCA-job 2_Cu3_Cys2 E -6359.732599363127
  Cu      1.040887     -0.141846     -1.322606
  Cu      3.205672      0.507513     -1.288471
  S      -0.896429     -0.804844     -0.677199
  Cu     -1.021906     -1.329296      1.461411
  S      -1.121407     -1.899045      3.494240
  C       0.329791     -1.287068      4.460176
  H      -0.128946     -0.653458      5.222309
  H       0.735988     -2.178053      4.943238
  H       1.632518     -1.174394      2.763517
  C       1.353652     -0.550711      3.630244
  C       0.780307      0.747470      3.092940
  O       0.087078      1.523225      3.721399
  O       1.201622      0.977536      1.827130
  H       0.831999      1.828955      1.510144
  N       2.504682     -0.181863      4.463203
  H       2.951526     -1.035239      4.795126
  H       3.199418      0.291584      3.885838
  C      -2.464333     -0.911670     -1.600807
  H      -2.320274     -0.367578     -2.537618
  H      -2.681803     -1.959260     -1.827270
  H      -3.649538     -0.740742      0.184807
  C      -3.602490     -0.285371     -0.817916
  C      -3.358074      1.202943     -0.645340
  O      -2.917803      1.939468     -1.504304
  O      -3.761004      1.633997      0.569948
  H      -3.647211      2.604001      0.609757
  N      -4.855014     -0.421650     -1.570285
  H      -5.067774     -1.413181     -1.670772
  H      -5.620425     -0.024767     -1.026617
29
Coordinates from ORCA-job 2_Cu3_Cys2 E -6359.735690118554
  Cu      1.021159     -0.189844     -1.429078
  Cu      3.242782      0.307757     -1.512896
  S      -0.889047     -0.844936     -0.715396
  Cu     -1.019501     -1.386922      1.378299
  S      -1.124623     -1.982453      3.397333
  C       0.295764     -1.309773      4.375886
  H      -0.149149     -0.732498      5.188661
  H       0.788561     -2.187456      4.801986
  H       1.604867     -1.071777      2.704479
  C       1.304281     -0.506405      3.601945
  C       0.719567      0.814865      3.146749
  O      -0.044991      1.523680      3.765304
  O       1.287503      1.183616      1.972276
  H       0.909398      2.053495      1.717500
  N       2.422884     -0.173884      4.500723
  H       2.853153     -1.052975      4.787829
  H       3.139033      0.322055      3.967548
  C      -2.473810     -0.934224     -1.591141
  H      -2.358585     -0.429032     -2.553441
  H      -2.730853     -1.984464     -1.760426
  H      -3.591168     -0.719564      0.219773
  C      -3.579974     -0.279212     -0.788813
  C      -3.325176      1.208168     -0.646586
  O      -2.890378      1.946257     -1.501486
  O      -3.673547      1.634717      0.591066
  H      -3.515173      2.600169      0.608152
  N      -4.844636     -0.432127     -1.522577
  H      -5.033547     -1.431077     -1.598292
  H      -5.604085     -0.049500     -0.959154
29
Coordinates from ORCA-job 2_Cu3_Cys2 E -6359.737322173910
  Cu      1.064917     -0.220847     -1.466450
  Cu      3.220293      0.510202     -1.564700
  S      -0.796684     -0.950180     -0.704818
  Cu     -0.921915     -1.599017      1.338845
  S      -1.135373     -2.167874      3.356783
  C       0.210079     -1.329124      4.311853
  H      -0.265424     -0.704812      5.066998
  H       0.752403     -2.134355      4.813909
  H       1.570284     -1.101094      2.674476
  C       1.186298     -0.502915      3.515638
  C       0.510454      0.730533      2.951684
  O      -0.367545      1.376387      3.477991
  O       1.064711      1.065562      1.771086
  H       0.597456      1.861809      1.445593
  N       2.237016     -0.018299      4.429627
  H       2.713103     -0.841972      4.796625
  H       2.943680      0.480293      3.886598
  C      -2.410415     -0.944549     -1.529719
  H      -2.312458     -0.427191     -2.485300
  H      -2.730361     -1.975646     -1.706210
  H      -3.452177     -0.728272      0.323173
  C      -3.453081     -0.257461     -0.670580
  C      -3.100553      1.205771     -0.498047
  O      -2.738553      1.958494     -1.371514
  O      -3.323333      1.608853      0.768065
  H      -3.117144      2.563577      0.789223
  N      -4.749497     -0.321180     -1.361149
  H      -4.985904     -1.307644     -1.461299
  H      -5.469564      0.067608     -0.752158
29
Coordinates from ORCA-job 2_Cu3_Cys2 E -6359.739146705156
  Cu      1.035286     -0.214387     -1.526567
  Cu      3.142839      0.648752     -1.674349
  S      -0.764166     -1.078960     -0.749171
  Cu     -0.872580     -1.710764      1.290874
  S      -1.104649     -2.301702      3.308083
  C       0.166258     -1.377172      4.271071
  H      -0.343368     -0.773141      5.020886
  H       0.768780     -2.132229      4.782339
  H       1.536414     -1.056824      2.644539
  C       1.096897     -0.485232      3.476973
  C       0.345233      0.698500      2.898112
  O      -0.599942      1.256044      3.412869
  O       0.926907      1.132017      1.769123
  H       0.416725      1.903444      1.451694
  N       2.107404      0.075108      4.392398
  H       2.632743     -0.711121      4.773774
  H       2.786874      0.609420      3.849521
  C      -2.411467     -1.008000     -1.507986
  H      -2.331794     -0.504950     -2.472567
  H      -2.788651     -2.023226     -1.661204
  H      -3.374027     -0.727083      0.382252
  C      -3.380902     -0.257794     -0.612141
  C      -2.920022      1.178009     -0.460487
  O      -2.585163      1.906354     -1.367830
  O      -2.969481      1.582255      0.819619
  H      -2.683700      2.515975      0.828131
  N      -4.706049     -0.235579     -1.246700
  H      -5.011169     -1.203874     -1.340504
  H      -5.374518      0.192814     -0.606530
29
Coordinates from ORCA-job 2_Cu3_Cys2 E -6359.740683348430
  Cu      0.862061     -0.075360     -1.567856
  Cu      2.898095      0.960273     -1.843267
  S      -0.810158     -1.171429     -0.775009
  Cu     -0.915628     -1.637987      1.291898
  S      -1.070848     -2.296313      3.318078
  C       0.203482     -1.461871      4.319181
  H      -0.268437     -0.914791      5.138122
  H       0.861091     -2.221036      4.752027
  H       1.527657     -1.009168      2.662142
  C       1.121713     -0.506979      3.555507
  C       0.381207      0.743427      3.109615
  O      -0.591709      1.199540      3.682682
  O       0.983418      1.358094      2.083282
  H       0.479963      2.169906      1.874397
  N       2.189199     -0.037254      4.453866
  H       2.714622     -0.855572      4.760533
  H       2.855710      0.517199      3.917133
  C      -2.482590     -1.144508     -1.495772
  H      -2.414983     -0.755661     -2.514010
  H      -2.884550     -2.161464     -1.532054
  H      -3.419939     -0.614973      0.364036
  C      -3.417107     -0.261275     -0.677646
  C      -2.884258      1.159874     -0.698906
  O      -2.575540      1.753107     -1.716362
  O      -2.844640      1.721040      0.516773
  H      -2.508339      2.633395      0.415443
  N      -4.753028     -0.250126     -1.285144
  H      -5.103980     -1.208281     -1.282806
  H      -5.391775      0.264849     -0.679660
29
Coordinates from ORCA-job 2_Cu3_Cys2 E -6359.743350194601
  Cu      0.751889     -0.013585     -1.589064
  Cu      2.614909      1.332530     -1.875620
  S      -0.773128     -1.362671     -0.851124
  Cu     -0.878454     -1.786522      1.228695
  S      -1.038358     -2.428603      3.269581
  C       0.153205     -1.497155      4.276605
  H      -0.359044     -0.954405      5.074511
  H       0.857449     -2.193508      4.742906
  H       1.458652     -0.993848      2.623268
  C       1.014401     -0.500052      3.504102
  C       0.208925      0.696327      3.030142
  O      -0.799007      1.103498      3.580995
  O       0.797717      1.336085      2.009550
  H       0.256454      2.120346      1.785920
  N       2.044431      0.050774      4.400482
  H       2.614216     -0.727445      4.732018
  H       2.681661      0.632082      3.855893
  C      -2.487039     -1.219664     -1.448535
  H      -2.463782     -0.853144     -2.477933
  H      -2.961295     -2.205729     -1.435473
  H      -3.269481     -0.594019      0.454082
  C      -3.296238     -0.252816     -0.591688
  C      -2.643805      1.115253     -0.667373
  O      -2.382826      1.680467     -1.714505
  O      -2.411945      1.656140      0.536643
  H      -1.990509      2.528541      0.400633
  N      -4.657322     -0.137712     -1.124397
  H      -5.083062     -1.064536     -1.095035
  H      -5.217902      0.430028     -0.489054
29
Coordinates from ORCA-job 2_Cu3_Cys2 E -6359.744780425869
  Cu      0.610044      0.148022     -1.477056
  Cu      2.213380      1.810540     -1.746668
  S      -0.716018     -1.468285     -0.848337
  Cu     -0.827588     -1.894277      1.261529
  S      -1.022846     -2.556564      3.299259
  C       0.128889     -1.537868      4.277395
  H      -0.419671     -0.974367      5.034485
  H       0.838721     -2.192557      4.794831
  H       1.399365     -1.088600      2.614182
  C       0.934505     -0.555162      3.462608
  C       0.080519      0.562745      2.908039
  O      -0.939377      0.995574      3.408233
  O       0.684012      1.131124      1.847999
  H       0.135896      1.890424      1.556839
  N       1.925406      0.103251      4.334026
  H       2.530645     -0.620850      4.720848
  H       2.533348      0.688214      3.758479
  C      -2.452245     -1.251587     -1.341455
  H      -2.469916     -0.944796     -2.391121
  H      -2.963638     -2.213510     -1.242059
  H      -3.098326     -0.469100      0.550779
  C      -3.171163     -0.198509     -0.514440
  C      -2.489452      1.141075     -0.721297
  O      -2.270181      1.636579     -1.807861
  O      -2.138170      1.719366      0.438902
  H      -1.687384      2.562003      0.224221
  N      -4.550007     -0.081705     -0.994530
  H      -4.993837     -0.992465     -0.883542
  H      -5.064203      0.547939     -0.378066
29
Coordinates from ORCA-job 2_Cu3_Cys2 E -6359.745963609380
  Cu      0.463125      0.287587     -1.369009
  Cu      1.742297      2.225805     -1.629323
  S      -0.706098     -1.479267     -0.822725
  Cu     -0.771350     -1.960362      1.288225
  S      -0.951961     -2.653869      3.320826
  C       0.173385     -1.632422      4.332018
  H      -0.391924     -1.072924      5.079470
  H       0.870736     -2.284298      4.871103
  H       1.449295     -1.173295      2.699934
  C       0.965053     -0.640226      3.538499
  C       0.107864      0.455458      2.959938
  O      -0.943561      0.879722      3.391697
  O       0.766035      1.012205      1.918760
  H       0.224372      1.760920      1.587340
  N       1.921123      0.043270      4.431846
  H       2.531811     -0.665643      4.838038
  H       2.525624      0.643234      3.866837
  C      -2.455560     -1.263858     -1.256138
  H      -2.515681     -1.088023     -2.334903
  H      -2.970003     -2.198720     -1.014365
  H      -2.971820     -0.205795      0.538869
  C      -3.127893     -0.103647     -0.547691
  C      -2.506768      1.198832     -1.014903
  O      -2.380399      1.527161     -2.173964
  O      -2.092784      1.958694      0.018642
  H      -1.707218      2.774751     -0.365875
  N      -4.537502     -0.089277     -0.943577
  H      -4.942748     -0.981318     -0.664464
  H      -5.026742      0.621961     -0.398882
29
Coordinates from ORCA-job 2_Cu3_Cys2 E -6359.746288718648
  Cu      0.345159      0.283010     -1.451710
  Cu      1.459580      2.328406     -1.712881
  S      -0.686863     -1.598963     -0.990870
  Cu     -0.743042     -2.049018      1.123161
  S      -0.925443     -2.675526      3.175740
  C       0.099365     -1.645673      4.271200
  H      -0.510024     -1.106337      5.002541
  H       0.787937     -2.276690      4.841912
  H       1.480485     -1.103356      2.722219
  C       0.930071     -0.609250      3.541211
  C       0.087205      0.491793      2.939805
  O      -1.014412      0.847254      3.310690
  O       0.767480      1.097687      1.942282
  H       0.204923      1.811503      1.572320
  N       1.822835      0.068652      4.497532
  H       2.423907     -0.637753      4.920955
  H       2.446767      0.689562      3.981610
  C      -2.460350     -1.303754     -1.282752
  H      -2.604564     -1.111320     -2.350433
  H      -2.996456     -2.219097     -1.012472
  H      -2.775923     -0.250112      0.567713
  C      -3.025747     -0.126995     -0.498522
  C      -2.389989      1.153039     -1.004668
  O      -2.402863      1.505645     -2.168335
  O      -1.868779      1.902811     -0.013574
  H      -1.486296      2.706096     -0.427117
  N      -4.466692     -0.041277     -0.751812
  H      -4.889247     -0.916960     -0.443594
  H      -4.868316      0.683280     -0.155928
29
Coordinates from ORCA-job 2_Cu3_Cys2 E -6359.747369249251
  Cu      0.467686      0.215205     -1.383321
  Cu      1.677932      2.189031     -1.603675
  S      -0.672219     -1.586641     -0.950320
  Cu     -0.735678     -2.069317      1.153824
  S      -0.957516     -2.641500      3.197303
  C       0.083673     -1.595322      4.275586
  H      -0.537066     -1.043722      4.990287
  H       0.742421     -2.241788      4.859424
  H       1.515941     -1.122231      2.733680
  C       0.960785     -0.596539      3.526716
  C       0.138368      0.494518      2.868139
  O      -0.958038      0.881338      3.218809
  O       0.813776      1.026164      1.826074
  H       0.240103      1.684981      1.377905
  N       1.847281      0.095238      4.476043
  H       2.430290     -0.608502      4.927083
  H       2.489392      0.690826      3.955167
  C      -2.438892     -1.269524     -1.311630
  H      -2.542728     -1.044998     -2.376672
  H      -2.988578     -2.191997     -1.096419
  H      -2.830859     -0.289845      0.568849
  C      -3.057133     -0.133760     -0.498298
  C      -2.455860      1.189692     -0.925787
  O      -2.444088      1.596336     -2.073248
  O      -2.053847      1.938866      0.121671
  H      -1.660608      2.759523     -0.247423
  N      -4.496985     -0.076877     -0.780775
  H      -4.904119     -0.971984     -0.506889
  H      -4.932724      0.619483     -0.175880
29
Coordinates from ORCA-job 2_Cu3_Cys2 E -6359.747452342133
  Cu      0.450187      0.281952     -1.269647
  Cu      1.579409      2.288196     -1.477901
  S      -0.642277     -1.556326     -0.877621
  Cu     -0.721700     -2.049522      1.237676
  S      -0.969946     -2.677028      3.256641
  C       0.095400     -1.606522      4.293307
  H      -0.528404     -1.055951      5.002859
  H       0.760602     -2.252577      4.871798
  H       1.492209     -1.173215      2.717976
  C       0.953352     -0.627527      3.509814
  C       0.105107      0.435807      2.837320
  O      -0.970770      0.842975      3.224593
  O       0.756400      0.947297      1.775899
  H       0.169557      1.583884      1.309526
  N       1.857245      0.089731      4.423175
  H       2.452957     -0.600433      4.879197
  H       2.487202      0.675443      3.875107
  C      -2.409074     -1.258031     -1.262288
  H      -2.503341     -1.068199     -2.334392
  H      -2.955732     -2.176261     -1.023991
  H      -2.817591     -0.213972      0.578327
  C      -3.040960     -0.102214     -0.494979
  C      -2.459186      1.214601     -0.971925
  O      -2.432909      1.569725     -2.134776
  O      -2.046474      1.996132      0.042825
  H      -1.639604      2.794124     -0.358566
  N      -4.478604     -0.077345     -0.788492
  H      -4.874660     -0.965020     -0.479605
  H      -4.927689      0.636931     -0.215636
29
Coordinates from ORCA-job 2_Cu3_Cys2 E -6359.747707852383
  Cu      0.409698      0.277589     -1.291078
  Cu      1.451375      2.332339     -1.517989
  S      -0.660169     -1.581568     -0.921675
  Cu     -0.697998     -2.076834      1.196766
  S      -0.947404     -2.682804      3.225409
  C       0.086717     -1.600781      4.281902
  H      -0.555702     -1.047778      4.969628
  H       0.744262     -2.239961      4.879885
  H       1.513354     -1.170006      2.748226
  C       0.949044     -0.620732      3.521276
  C       0.117174      0.431667      2.816428
  O      -0.969127      0.845035      3.169064
  O       0.807217      0.930632      1.774834
  H       0.237756      1.557284      1.270917
  N       1.819986      0.106355      4.459003
  H       2.407542     -0.578086      4.934979
  H       2.461563      0.695886      3.926575
  C      -2.425543     -1.259859     -1.274855
  H      -2.531729     -1.054479     -2.343420
  H      -2.978164     -2.175263     -1.039165
  H      -2.787403     -0.233884      0.582064
  C      -3.028396     -0.107235     -0.486142
  C      -2.441730      1.209823     -0.958490
  O      -2.412822      1.573245     -2.117360
  O      -2.004741      1.972167      0.060729
  H      -1.587392      2.766856     -0.336529
  N      -4.468500     -0.067039     -0.759809
  H      -4.866868     -0.953148     -0.451060
  H      -4.901289      0.647233     -0.173890
29
Coordinates from ORCA-job 2_Cu3_Cys2 E -6359.747719513246
  Cu      0.380648      0.292098     -1.284826
  Cu      1.368338      2.372434     -1.517920
  S      -0.664796     -1.585418     -0.940854
  Cu     -0.692602     -2.077976      1.174122
  S      -0.942346     -2.676640      3.204169
  C       0.079190     -1.602302      4.278936
  H      -0.572684     -1.050620      4.959939
  H       0.731411     -2.242904      4.880994
  H       1.535536     -1.168797      2.773749
  C       0.956158     -0.619751      3.535807
  C       0.142255      0.435425      2.813958
  O      -0.947789      0.854062      3.153698
  O       0.845090      0.920744      1.775000
  H       0.284398      1.534322      1.242306
  N       1.809177      0.102789      4.492316
  H       2.386487     -0.584326      4.976884
  H       2.462290      0.692181      3.974452
  C      -2.431505     -1.262538     -1.283435
  H      -2.544605     -1.058472     -2.351822
  H      -2.985112     -2.176379     -1.042813
  H      -2.768303     -0.231626      0.575833
  C      -3.025320     -0.107918     -0.489038
  C      -2.444232      1.206788     -0.973605
  O      -2.434297      1.564738     -2.135671
  O      -1.992467      1.974697      0.035488
  H      -1.565966      2.761029     -0.370990
  N      -4.470090     -0.067938     -0.740230
  H      -4.865188     -0.951629     -0.418737
  H      -4.892965      0.650584     -0.151487
29
Coordinates from ORCA-job 2_Cu3_Cys2 E -6359.747806571872
  Cu      0.357749      0.304739     -1.265954
  Cu      1.295325      2.405490     -1.506782
  S      -0.672799     -1.585385     -0.947210
  Cu     -0.696998     -2.067804      1.164810
  S      -0.953071     -2.656669      3.195634
  C       0.069496     -1.592959      4.279284
  H      -0.587263     -1.035043      4.951782
  H       0.710832     -2.237900      4.887469
  H       1.562064     -1.178817      2.802965
  C       0.973266     -0.619772      3.550050
  C       0.194639      0.446924      2.805169
  O      -0.894605      0.885159      3.125160
  O       0.925675      0.913527      1.777507
  H       0.390742      1.527454      1.216105
  N       1.814520      0.090999      4.525492
  H       2.370810     -0.604781      5.022018
  H       2.488041      0.669873      4.022845
  C      -2.438845     -1.264269     -1.296535
  H      -2.547592     -1.059133     -2.365106
  H      -2.993006     -2.179002     -1.059893
  H      -2.783451     -0.239013      0.564796
  C      -3.040932     -0.113708     -0.499764
  C      -2.465748      1.204438     -0.980140
  O      -2.453263      1.562152     -2.143384
  O      -2.024216      1.974619      0.031712
  H      -1.582757      2.755259     -0.372347
  N      -4.486921     -0.080506     -0.750663
  H      -4.878147     -0.965682     -0.426968
  H      -4.912832      0.636466     -0.161828
29
Coordinates from ORCA-job 2_Cu3_Cys2 E -6359.748134944856
  Cu      0.334000      0.325795     -1.238611
  Cu      1.231399      2.443246     -1.479988
  S      -0.683721     -1.575620     -0.943821
  Cu     -0.707616     -2.047752      1.167508
  S      -0.968878     -2.626489      3.199891
  C       0.065302     -1.579272      4.288704
  H      -0.590355     -1.011655      4.954318
  H       0.692713     -2.233044      4.902004
  H       1.587875     -1.199128      2.836617
  C       0.997084     -0.624076      3.569884
  C       0.260356      0.456496      2.803236
  O      -0.823235      0.924976      3.100010
  O       1.024835      0.894364      1.787055
  H       0.522152      1.512853      1.199408
  N       1.834576      0.072216      4.558988
  H       2.366936     -0.633763      5.067261
  H       2.529391      0.635196      4.067460
  C      -2.447867     -1.263777     -1.310221
  H      -2.546323     -1.059490     -2.379985
  H      -2.998850     -2.182067     -1.079485
  H      -2.817646     -0.241332      0.547362
  C      -3.068032     -0.118804     -0.519193
  C      -2.502523      1.204294     -0.995634
  O      -2.479990      1.559535     -2.159794
  O      -2.081892      1.980308      0.020464
  H      -1.629529      2.757516     -0.378910
  N      -4.512407     -0.100418     -0.782024
  H      -4.897608     -0.988088     -0.457527
  H      -4.949438      0.614638     -0.198750
29
Coordinates from ORCA-job 2_Cu3_Cys2 E -6359.748577789388
  Cu      0.315657      0.354209     -1.192200
  Cu      1.174880      2.488814     -1.410198
  S      -0.686266     -1.560892     -0.930688
  Cu     -0.717825     -2.031394      1.180123
  S      -0.988260     -2.600958      3.212232
  C       0.059335     -1.563168      4.298452
  H      -0.594686     -0.983702      4.955362
  H       0.672049     -2.224122      4.918989
  H       1.603117     -1.225904      2.861225
  C       1.013619     -0.630719      3.579233
  C       0.310235      0.453021      2.786518
  O      -0.765811      0.951318      3.061392
  O       1.099295      0.855579      1.774083
  H       0.621018      1.470414      1.161221
  N       1.851106      0.062430      4.570592
  H       2.364506     -0.646778      5.093657
  H       2.561916      0.607084      4.081227
  C      -2.448630     -1.260610     -1.315584
  H      -2.536381     -1.056569     -2.386319
  H      -2.995261     -2.183241     -1.091584
  H      -2.843720     -0.239550      0.537049
  C      -3.086996     -0.121265     -0.531544
  C      -2.531406      1.206192     -1.006598
  O      -2.500464      1.558355     -2.171555
  O      -2.127029      1.987877      0.011593
  H      -1.668085      2.762599     -0.384786
  N      -4.529324     -0.118633     -0.806059
  H      -4.908109     -1.008532     -0.480156
  H      -4.977768      0.594801     -0.229454
29
Coordinates from ORCA-job 2_Cu3_Cys2 E -6359.749297504889
  Cu      0.279273      0.392773     -1.150069
  Cu      1.085499      2.549110     -1.347320
  S      -0.696102     -1.541260     -0.925276
  Cu     -0.734813     -2.003955      1.184181
  S      -1.015245     -2.554852      3.218972
  C       0.049183     -1.538605      4.309487
  H      -0.599975     -0.938697      4.952996
  H       0.637476     -2.210814      4.941295
  H       1.631301     -1.259660      2.903954
  C       1.041603     -0.638420      3.599189
  C       0.393516      0.454595      2.772593
  O      -0.671739      0.992616      3.014957
  O       1.222031      0.816545      1.777036
  H       0.783151      1.431715      1.132302
  N       1.875395      0.043464      4.601329
  H       2.356574     -0.673266      5.144270
  H       2.612458      0.561322      4.122177
  C      -2.456622     -1.259404     -1.331893
  H      -2.532189     -1.054041     -2.403229
  H      -2.996336     -2.188373     -1.117389
  H      -2.883173     -0.246162      0.517931
  C      -3.118086     -0.129715     -0.552598
  C      -2.574115      1.204447     -1.021109
  O      -2.531189      1.555203     -2.186485
  O      -2.190707      1.990168      0.001524
  H      -1.719098      2.761254     -0.387416
  N      -4.557988     -0.145217     -0.840454
  H      -4.929328     -1.038565     -0.514926
  H      -5.020044      0.564449     -0.269804
29
Coordinates from ORCA-job 2_Cu3_Cys2 E -6359.750938969336
  Cu      0.248447      0.459441     -0.992406
  Cu      1.053762      2.623996     -1.044948
  S      -0.722095     -1.491952     -0.865797
  Cu     -0.776444     -1.964258      1.239961
  S      -1.048048     -2.500253      3.278006
  C       0.063731     -1.502718      4.342286
  H      -0.571229     -0.878047      4.975363
  H       0.625706     -2.186836      4.985173
  H       1.670611     -1.325807      2.954551
  C       1.097462     -0.659480      3.620202
  C       0.527651      0.440345      2.746902
  O      -0.508781      1.047175      2.941662
  O       1.408324      0.732552      1.773092
  H       1.027136      1.359037      1.096061
  N       1.947580      0.013865      4.616163
  H       2.388812     -0.706529      5.186978
  H       2.712979      0.485019      4.133672
  C      -2.473872     -1.249611     -1.337844
  H      -2.510103     -1.056142     -2.412877
  H      -2.998673     -2.189674     -1.137100
  H      -2.999589     -0.216617      0.475662
  C      -3.196738     -0.128325     -0.604253
  C      -2.674848      1.210263     -1.084374
  O      -2.593163      1.534747     -2.254498
  O      -2.355133      2.026461     -0.066631
  H      -1.874442      2.792666     -0.450092
  N      -4.622822     -0.195413     -0.945489
  H      -4.979151     -1.090998     -0.611531
  H      -5.126359      0.513749     -0.411672
29
Coordinates from ORCA-job 2_Cu3_Cys2 E -6359.751948668621
  Cu      0.181327      0.542697     -0.870787
  Cu      0.946259      2.718822     -0.799852
  S      -0.729555     -1.447870     -0.836740
  Cu     -0.839055     -1.884859      1.273870
  S      -1.132039     -2.374934      3.317644
  C       0.037370     -1.414719      4.356852
  H      -0.566417     -0.730880      4.957575
  H       0.542599     -2.111748      5.031937
  H       1.684035     -1.408093      3.008317
  C       1.140418     -0.674708      3.625917
  C       0.677257      0.423197      2.689226
  O      -0.318260      1.109843      2.823573
  O       1.604637      0.613935      1.738240
  H       1.278721      1.229915      1.013326
  N       2.010431     -0.016099      4.616167
  H       2.385631     -0.737904      5.230488
  H       2.819406      0.377425      4.135629
  C      -2.470663     -1.244720     -1.362251
  H      -2.474800     -1.034974     -2.434158
  H      -2.976172     -2.201156     -1.194737
  H      -3.089099     -0.257855      0.447726
  C      -3.248259     -0.155796     -0.636709
  C      -2.741866      1.203741     -1.073830
  O      -2.617867      1.549378     -2.233224
  O      -2.490365      2.010272     -0.031896
  H      -2.012226      2.793251     -0.380058
  N      -4.657909     -0.253893     -1.032707
  H      -5.003833     -1.161482     -0.722277
  H      -5.198995      0.435871     -0.511037
29
Coordinates from ORCA-job 2_Cu3_Cys2 E -6359.753216773123
  Cu      0.122145      0.599741     -0.834612
  Cu      1.089707      2.686416     -0.658673
  S      -0.775410     -1.406236     -0.820331
  Cu     -0.976071     -1.714305      1.300205
  S      -1.242860     -2.131019      3.368126
  C       0.020129     -1.271077      4.377306
  H      -0.501510     -0.508804      4.958678
  H       0.452195     -1.992828      5.077071
  H       1.649381     -1.465257      3.010767
  C       1.197083     -0.674640      3.630755
  C       0.841748      0.480411      2.715388
  O      -0.068151      1.268732      2.904909
  O       1.745340      0.607033      1.741458
  H       1.445515      1.303980      1.066077
  N       2.151481     -0.118864      4.608200
  H       2.448594     -0.875764      5.222793
  H       2.996013      0.172733      4.116734
  C      -2.492311     -1.263226     -1.430465
  H      -2.447544     -1.002944     -2.489544
  H      -2.964321     -2.245384     -1.334485
  H      -3.257317     -0.400546      0.387898
  C      -3.341283     -0.235292     -0.696673
  C      -2.820366      1.153956     -1.012515
  O      -2.617340      1.563382     -2.139532
  O      -2.648182      1.899392      0.084549
  H      -2.172115      2.713941     -0.179044
  N      -4.717219     -0.324783     -1.194219
  H      -5.073402     -1.250487     -0.959854
  H      -5.303216      0.328393     -0.674743
29
Coordinates from ORCA-job 2_Cu3_Cys2 E -6359.753816119775
  Cu      0.141549      0.600651     -0.875592
  Cu      1.003089      2.734447     -0.692865
  S      -0.720875     -1.420094     -0.873336
  Cu     -0.945281     -1.663713      1.263681
  S      -1.294165     -2.006986      3.335681
  C      -0.030941     -1.166354      4.362906
  H      -0.505586     -0.323482      4.868222
  H       0.303109     -1.870690      5.130783
  H       1.595088     -1.520242      3.019001
  C       1.187386     -0.688011      3.615425
  C       0.836523      0.457277      2.688655
  O      -0.027245      1.286825      2.920193
  O       1.638534      0.503356      1.628732
  H       1.248757      1.176498      0.967339
  N       2.166150     -0.142010      4.575159
  H       2.427878     -0.888728      5.218469
  H       3.024619      0.091409      4.074840
  C      -2.442082     -1.258649     -1.464978
  H      -2.410702     -0.954966     -2.513044
  H      -2.909045     -2.246032     -1.403186
  H      -3.190373     -0.490107      0.401439
  C      -3.283487     -0.268339     -0.673515
  C      -2.775517      1.143067     -0.908841
  O      -2.600499      1.629316     -2.008689
  O      -2.597348      1.822504      0.232181
  H      -2.174932      2.677956      0.008025
  N      -4.661931     -0.336649     -1.164675
  H      -5.014931     -1.272987     -0.972037
  H      -5.247034      0.291389     -0.613749
29
Coordinates from ORCA-job 2_Cu3_Cys2 E -6359.754632395170
  Cu      0.075806      0.653902     -0.870860
  Cu      1.022486      2.757253     -0.684793
  S      -0.734731     -1.377109     -0.915440
  Cu     -0.871673     -1.679348      1.212517
  S      -1.274910     -1.978240      3.283065
  C      -0.052242     -1.128344      4.347520
  H      -0.523731     -0.250470      4.796938
  H       0.230433     -1.811925      5.153999
  H       1.619806     -1.544238      3.076627
  C       1.209429     -0.691329      3.640307
  C       0.933895      0.443792      2.674649
  O       0.078361      1.297958      2.850346
  O       1.805398      0.457050      1.661456
  H       1.481049      1.127450      0.961788
  N       2.156988     -0.155683      4.634752
  H       2.368433     -0.900204      5.299007
  H       3.042323      0.048321      4.169914
  C      -2.463855     -1.240828     -1.493207
  H      -2.448082     -0.924271     -2.539167
  H      -2.911257     -2.238701     -1.437846
  H      -3.210828     -0.511619      0.388470
  C      -3.321349     -0.278818     -0.683041
  C      -2.847967      1.143672     -0.907357
  O      -2.711631      1.652772     -2.004512
  O      -2.640166      1.803346      0.245722
  H      -2.234128      2.669446      0.022956
  N      -4.704211     -0.371138     -1.162729
  H      -5.035996     -1.317340     -0.974006
  H      -5.296940      0.241301     -0.600852
29
Coordinates from ORCA-job 2_Cu3_Cys2 E -6359.755122834719
  Cu      0.083318      0.651170     -0.797531
  Cu      1.185038      2.676076     -0.589825
  S      -0.744692     -1.376144     -0.881064
  Cu     -0.931418     -1.617449      1.259324
  S      -1.288804     -1.962322      3.331175
  C      -0.029931     -1.124041      4.366380
  H      -0.499435     -0.261169      4.843028
  H       0.268918     -1.822514      5.154333
  H       1.614491     -1.530856      3.060659
  C       1.217139     -0.678693      3.634041
  C       0.943633      0.456470      2.664709
  O       0.093801      1.317493      2.826220
  O       1.819782      0.446737      1.650489
  H       1.509492      1.106195      0.938885
  N       2.183149     -0.148469      4.613516
  H       2.405407     -0.897724      5.268651
  H       3.059177      0.060171      4.133224
  C      -2.463198     -1.238423     -1.489396
  H      -2.426741     -0.916599     -2.532827
  H      -2.907744     -2.237994     -1.446817
  H      -3.266533     -0.523561      0.372504
  C      -3.345435     -0.284099     -0.699839
  C      -2.873884      1.140883     -0.903844
  O      -2.707625      1.662246     -1.989474
  O      -2.724953      1.795299      0.261627
  H      -2.351430      2.677369      0.053354
  N      -4.712139     -0.378138     -1.225193
  H      -5.045481     -1.325996     -1.050105
  H      -5.323190      0.230739     -0.679980
29
Coordinates from ORCA-job 2_Cu3_Cys2 E -6359.755511226064
  Cu      0.089792      0.633310     -0.799787
  Cu      1.097529      2.705213     -0.615912
  S      -0.755669     -1.383031     -0.875631
  Cu     -0.958295     -1.540271      1.272900
  S      -1.314703     -1.882644      3.346201
  C      -0.031486     -1.074271      4.375506
  H      -0.472659     -0.194300      4.847557
  H       0.241526     -1.779399      5.165917
  H       1.590743     -1.536860      3.052759
  C       1.231550     -0.676855      3.639297
  C       0.984384      0.479920      2.686579
  O       0.184619      1.378214      2.892748
  O       1.817904      0.444148      1.641693
  H       1.506331      1.127946      0.952026
  N       2.226847     -0.194085      4.613285
  H       2.429345     -0.959272      5.255995
  H       3.104806     -0.010479      4.126514
  C      -2.466922     -1.253530     -1.505399
  H      -2.418469     -0.920118     -2.543850
  H      -2.907174     -2.254973     -1.479213
  H      -3.315707     -0.574828      0.350068
  C      -3.362061     -0.309987     -0.717352
  C      -2.868624      1.114252     -0.874106
  O      -2.668098      1.659442     -1.941384
  O      -2.737219      1.737909      0.308225
  H      -2.373995      2.628501      0.128072
  N      -4.715090     -0.375378     -1.281542
  H      -5.065412     -1.321464     -1.134277
  H      -5.333082      0.229545     -0.740667
29
Coordinates from ORCA-job 2_Cu3_Cys2 E -6359.755744138023
  Cu      0.079178      0.610248     -0.812419
  Cu      1.161854      2.648181     -0.682831
  S      -0.753723     -1.395145     -0.928290
  Cu     -0.904965     -1.522205      1.225015
  S      -1.287911     -1.870348      3.294003
  C      -0.042930     -1.050394      4.358605
  H      -0.482591     -0.153020      4.799302
  H       0.195804     -1.747508      5.166621
  H       1.603411     -1.530646      3.067552
  C       1.239758     -0.669171      3.649784
  C       0.993651      0.485392      2.693826
  O       0.207435      1.391971      2.914022
  O       1.805770      0.439021      1.633541
  H       1.473988      1.111626      0.944043
  N       2.219163     -0.187293      4.638409
  H       2.414183     -0.954552      5.281161
  H       3.103789      0.001484      4.165643
  C      -2.474169     -1.251101     -1.530995
  H      -2.441186     -0.902158     -2.565077
  H      -2.915690     -2.252122     -1.513866
  H      -3.315890     -0.614024      0.345006
  C      -3.362114     -0.321251     -0.715388
  C      -2.869726      1.107146     -0.833108
  O      -2.671586      1.683924     -1.884572
  O      -2.732275      1.697406      0.367351
  H      -2.381528      2.598107      0.209345
  N      -4.717904     -0.368392     -1.275609
  H      -5.072162     -1.315867     -1.146244
  H      -5.330925      0.227346     -0.718609
29
Coordinates from ORCA-job 2_Cu3_Cys2 E -6359.755915916524
  Cu      0.061430      0.568926     -0.783457
  Cu      1.092909      2.637370     -0.697068
  S      -0.759236     -1.424779     -0.976814
  Cu     -0.882006     -1.474324      1.180649
  S      -1.264769     -1.860940      3.243585
  C      -0.049211     -1.037964      4.339062
  H      -0.493414     -0.136303      4.767013
  H       0.166614     -1.738688      5.150349
  H       1.628447     -1.527319      3.091153
  C       1.253570     -0.663650      3.662710
  C       1.027805      0.483419      2.691408
  O       0.240504      1.394229      2.887545
  O       1.857723      0.423097      1.644555
  H       1.532295      1.080109      0.935406
  N       2.204983     -0.178752      4.675565
  H       2.387722     -0.947648      5.320099
  H       3.099752      0.017469      4.225676
  C      -2.486329     -1.250410     -1.552272
  H      -2.465715     -0.892215     -2.583811
  H      -2.938462     -2.246850     -1.537341
  H      -3.308379     -0.630775      0.339399
  C      -3.361222     -0.323847     -0.717019
  C      -2.872531      1.106229     -0.821289
  O      -2.682109      1.699048     -1.865563
  O      -2.731488      1.682216      0.388025
  H      -2.389297      2.588467      0.236573
  N      -4.723163     -0.364164     -1.264934
  H      -5.076658     -1.312526     -1.137988
  H      -5.329053      0.227230     -0.694992
29
Coordinates from ORCA-job 2_Cu3_Cys2 E -6359.756053034141
  Cu      0.069958      0.515782     -0.739028
  Cu      1.100669      2.583337     -0.632052
  S      -0.785565     -1.443919     -1.022911
  Cu     -0.847771     -1.459554      1.136971
  S      -1.224047     -1.868171      3.197803
  C      -0.048016     -1.024913      4.320062
  H      -0.509807     -0.121731      4.726277
  H       0.147741     -1.717512      5.143356
  H       1.665468     -1.516625      3.120799
  C       1.272683     -0.650693      3.676079
  C       1.068974      0.487350      2.689040
  O       0.300166      1.416911      2.873596
  O       1.899327      0.401565      1.643706
  H       1.582825      1.051378      0.922637
  N       2.194940     -0.156754      4.709867
  H       2.370338     -0.921978      5.360575
  H       3.097922      0.049178      4.281567
  C      -2.514051     -1.242071     -1.585003
  H      -2.495235     -0.857987     -2.607415
  H      -2.971882     -2.235990     -1.593465
  H      -3.319130     -0.656614      0.325543
  C      -3.378334     -0.330544     -0.724814
  C      -2.888502      1.099941     -0.811871
  O      -2.693255      1.700822     -1.851120
  O      -2.750773      1.665211      0.402702
  H      -2.412498      2.574268      0.262774
  N      -4.745898     -0.359352     -1.259955
  H      -5.101121     -1.308571     -1.145344
  H      -5.344417      0.223890     -0.674151
29
Coordinates from ORCA-job 2_Cu3_Cys2 E -6359.756028128900
  Cu      0.056151      0.525084     -0.756246
  Cu      1.121904      2.577871     -0.679025
  S      -0.783809     -1.446751     -1.036381
  Cu     -0.852713     -1.452254      1.122350
  S      -1.213745     -1.905951      3.178711
  C      -0.048012     -1.065171      4.312455
  H      -0.524775     -0.180797      4.740856
  H       0.169045     -1.766810      5.123629
  H       1.677381     -1.501861      3.114409
  C       1.263003     -0.650229      3.676120
  C       1.045322      0.494862      2.703025
  O       0.260173      1.410730      2.890176
  O       1.876003      0.425931      1.656908
  H       1.552073      1.076576      0.941292
  N       2.170608     -0.149467      4.719974
  H       2.358732     -0.917673      5.363624
  H       3.071590      0.078113      4.297779
  C      -2.517298     -1.243379     -1.579584
  H      -2.510323     -0.866046     -2.604624
  H      -2.977953     -2.236080     -1.575033
  H      -3.275306     -0.631226      0.340393
  C      -3.362068     -0.321986     -0.713308
  C      -2.873877      1.105968     -0.838558
  O      -2.703407      1.683471     -1.895069
  O      -2.717289      1.697842      0.359243
  H      -2.359037      2.595401      0.195813
  N      -4.742272     -0.360069     -1.213712
  H      -5.092263     -1.308484     -1.079198
  H      -5.327127      0.229040     -0.619795
29
Coordinates from ORCA-job 2_Cu3_Cys2 E -6359.756096958418
  Cu      0.074910      0.516123     -0.767049
  Cu      1.072284      2.600712     -0.658304
  S      -0.775964     -1.457325     -1.028926
  Cu     -0.841646     -1.517348      1.127866
  S      -1.202946     -1.965201      3.184834
  C      -0.046786     -1.100222      4.310069
  H      -0.539017     -0.225924      4.743424
  H       0.192932     -1.792025      5.122835
  H       1.684909     -1.498228      3.105355
  C       1.251319     -0.655051      3.665032
  C       1.005439      0.484654      2.693046
  O       0.193790      1.377656      2.876133
  O       1.848372      0.446397      1.655042
  H       1.511308      1.095207      0.944488
  N       2.152474     -0.129596      4.703618
  H       2.357207     -0.889081      5.352299
  H       3.047734      0.110642      4.276984
  C      -2.514026     -1.247905     -1.560937
  H      -2.512515     -0.887383     -2.591645
  H      -2.982149     -2.236699     -1.538093
  H      -3.246887     -0.596053      0.356437
  C      -3.344432     -0.305796     -0.701816
  C      -2.847933      1.117199     -0.856533
  O      -2.665764      1.667669     -1.925524
  O      -2.695347      1.734686      0.327654
  H      -2.315342      2.620480      0.148606
  N      -4.730508     -0.341845     -1.186220
  H      -5.084487     -1.286870     -1.038242
  H      -5.306218      0.257782     -0.594209
29
Coordinates from ORCA-job 2_Cu3_Cys2 E -6359.756119336153
  Cu      0.071535      0.517277     -0.760950
  Cu      1.096078      2.589043     -0.656218
  S      -0.780858     -1.452588     -1.037784
  Cu     -0.841555     -1.491156      1.120168
  S      -1.200742     -1.942641      3.177712
  C      -0.045992     -1.085055      4.309058
  H      -0.533190     -0.205338      4.736903
  H       0.181581     -1.777272      5.125046
  H       1.689647     -1.502063      3.116828
  C       1.259616     -0.653622      3.671296
  C       1.025409      0.483850      2.694177
  O       0.225351      1.387455      2.876916
  O       1.862437      0.429596      1.652233
  H       1.526440      1.077249      0.938712
  N       2.158845     -0.131382      4.713169
  H       2.355153     -0.890381      5.365127
  H       3.057980      0.101767      4.290480
  C      -2.518499     -1.245795     -1.572014
  H      -2.515533     -0.877520     -2.599945
  H      -2.982821     -2.236512     -1.557516
  H      -3.259020     -0.612133      0.348239
  C      -3.353351     -0.312789     -0.707785
  C      -2.859794      1.112968     -0.847553
  O      -2.673761      1.674101     -1.910224
  O      -2.714927      1.719738      0.343265
  H      -2.344901      2.611449      0.174370
  N      -4.737606     -0.346496     -1.197209
  H      -5.091029     -1.292974     -1.057973
  H      -5.315782      0.247880     -0.602307
29
Coordinates from ORCA-job 2_Cu3_Cys2 E -6359.756128371160
  Cu      0.072123      0.511972     -0.761775
  Cu      1.098835      2.582248     -0.660077
  S      -0.782133     -1.454956     -1.048256
  Cu     -0.836965     -1.485690      1.109632
  S      -1.194474     -1.944134      3.166076
  C      -0.047868     -1.084320      4.303051
  H      -0.537840     -0.204943      4.728651
  H       0.176560     -1.775653      5.120766
  H       1.695381     -1.500511      3.121030
  C       1.261195     -0.652344      3.672476
  C       1.030064      0.484404      2.693891
  O       0.231651      1.389534      2.876313
  O       1.867823      0.428199      1.652049
  H       1.532185      1.076343      0.938242
  N       2.153895     -0.128735      4.719370
  H       2.346744     -0.887406      5.372815
  H       3.055409      0.104238      4.301546
  C      -2.521981     -1.246547     -1.575747
  H      -2.522548     -0.877231     -2.603338
  H      -2.986637     -2.237110     -1.560341
  H      -3.253407     -0.615387      0.348414
  C      -3.352155     -0.314236     -0.706755
  C      -2.858497      1.111768     -0.845341
  O      -2.669039      1.673594     -1.907038
  O      -2.719106      1.718381      0.346491
  H      -2.354160      2.612451      0.179085
  N      -4.738507     -0.344663     -1.190572
  H      -5.092455     -1.291224     -1.053080
  H      -5.313380      0.248613     -0.591356
29
Coordinates from ORCA-job 2_Cu3_Cys2 E -6359.756164680210
  Cu      0.075126      0.516232     -0.766907
  Cu      1.118996      2.576990     -0.667204
  S      -0.782644     -1.449308     -1.057615
  Cu     -0.829950     -1.484701      1.100273
  S      -1.184050     -1.955206      3.155222
  C      -0.047653     -1.091581      4.298263
  H      -0.543553     -0.215073      4.722864
  H       0.177128     -1.781277      5.117527
  H       1.705887     -1.499932      3.129441
  C       1.262663     -0.652917      3.675325
  C       1.031730      0.480234      2.692866
  O       0.230880      1.383995      2.871431
  O       1.872087      0.422301      1.652748
  H       1.536894      1.068583      0.936458
  N       2.145585     -0.122062      4.727192
  H       2.336262     -0.877848      5.384690
  H       3.049418      0.111941      4.314757
  C      -2.525794     -1.245458     -1.577191
  H      -2.531484     -0.878160     -2.605508
  H      -2.988162     -2.237004     -1.557363
  H      -3.242668     -0.610733      0.350223
  C      -3.350516     -0.312607     -0.704948
  C      -2.860254      1.114267     -0.850031
  O      -2.669054      1.671755     -1.913600
  O      -2.728972      1.727198      0.339509
  H      -2.373218      2.624313      0.169558
  N      -4.740412     -0.344086     -1.178141
  H      -5.092293     -1.291232     -1.039649
  H      -5.311269      0.248031     -0.573966
29
Coordinates from ORCA-job 2_Cu3_Cys2 E -6359.756207581997
  Cu      0.079431      0.520192     -0.774595
  Cu      1.128301      2.575801     -0.666358
  S      -0.777324     -1.445813     -1.075492
  Cu     -0.817432     -1.495613      1.082634
  S      -1.170059     -1.979736      3.134695
  C      -0.052823     -1.103196      4.285539
  H      -0.559702     -0.229983      4.704316
  H       0.171740     -1.787263      5.109716
  H       1.717345     -1.499344      3.136942
  C       1.260052     -0.654660      3.674426
  C       1.028434      0.473482      2.686354
  O       0.223497      1.374573      2.859397
  O       1.873650      0.416012      1.649831
  H       1.540108      1.062217      0.932077
  N       2.127145     -0.112189      4.734015
  H       2.313867     -0.863325      5.397979
  H       3.034652      0.123434      4.330624
  C      -2.527539     -1.245352     -1.575220
  H      -2.545331     -0.884459     -2.605636
  H      -2.988634     -2.237171     -1.543720
  H      -3.214552     -0.599059      0.358394
  C      -3.339672     -0.308118     -0.696922
  C      -2.855312      1.119537     -0.856791
  O      -2.663471      1.667660     -1.924965
  O      -2.733252      1.745492      0.327322
  H      -2.391484      2.646361      0.149235
  N      -4.736865     -0.341986     -1.147938
  H      -5.084872     -1.289898     -1.004848
  H      -5.299191      0.249061     -0.534790
29
Coordinates from ORCA-job 2_Cu3_Cys2 E -6359.756288404750
  Cu      0.089634      0.520045     -0.785396
  Cu      1.130852      2.576242     -0.671526
  S      -0.773012     -1.441662     -1.100698
  Cu     -0.789249     -1.522878      1.056911
  S      -1.135939     -2.034722      3.103289
  C      -0.054681     -1.132512      4.267733
  H      -0.584957     -0.269438      4.678866
  H       0.175067     -1.809561      5.096376
  H       1.741633     -1.492217      3.147044
  C       1.258280     -0.656818      3.675853
  C       1.019559      0.465953      2.682965
  O       0.203025      1.357848      2.848986
  O       1.870693      0.414829      1.651048
  H       1.537392      1.058127      0.930810
  N       2.096954     -0.096114      4.748905
  H       2.283690     -0.842256      5.418451
  H       3.007619      0.152399      4.360753
  C      -2.533801     -1.246642     -1.567127
  H      -2.572021     -0.902228     -2.602566
  H      -2.994385     -2.237553     -1.510486
  H      -3.175481     -0.570034      0.370889
  C      -3.324907     -0.295615     -0.685706
  C      -2.847039      1.130569     -0.876883
  O      -2.655024      1.657669     -1.955423
  O      -2.735466      1.782736      0.294517
  H      -2.408061      2.684969      0.097987
  N      -4.732668     -0.333580     -1.102946
  H      -5.076116     -1.281132     -0.946682
  H      -5.280879      0.260234     -0.479721
29
Coordinates from ORCA-job 2_Cu3_Cys2 E -6359.756339694799
  Cu      0.094978      0.524499     -0.788379
  Cu      1.137965      2.577314     -0.664243
  S      -0.767794     -1.436169     -1.119561
  Cu     -0.768609     -1.543207      1.038459
  S      -1.107766     -2.080263      3.080083
  C      -0.054875     -1.157315      4.254156
  H      -0.603429     -0.301611      4.656696
  H       0.177480     -1.828467      5.086841
  H       1.759988     -1.489411      3.154606
  C       1.257250     -0.661300      3.676720
  C       1.013060      0.456571      2.679590
  O       0.185230      1.339590      2.837607
  O       1.870949      0.412611      1.653969
  H       1.538289      1.053862      0.931654
  N       2.073468     -0.086074      4.759335
  H       2.261195     -0.827560      5.433683
  H       2.985731      0.174409      4.383167
  C      -2.536589     -1.246064     -1.557032
  H      -2.592679     -0.916966     -2.596573
  H      -2.995949     -2.235947     -1.478152
  H      -3.142954     -0.539593      0.381645
  C      -3.312477     -0.282579     -0.676277
  C      -2.845665      1.142704     -0.899175
  O      -2.656522      1.648041     -1.988412
  O      -2.742994      1.821246      0.258048
  H      -2.427447      2.723095      0.042355
  N      -4.728290     -0.331099     -1.064972
  H      -5.063830     -1.278869     -0.893650
  H      -5.267005      0.265208     -0.435966
29
Coordinates from ORCA-job 2_Cu3_Cys2 E -6359.756411999879
  Cu      0.104778      0.536777     -0.787764
  Cu      1.153239      2.582993     -0.646895
  S      -0.760786     -1.418074     -1.153167
  Cu     -0.724403     -1.577752      1.003493
  S      -1.039393     -2.173886      3.033494
  C      -0.047948     -1.211195      4.229050
  H      -0.634272     -0.372659      4.613898
  H       0.187926     -1.873256      5.067859
  H       1.801732     -1.483514      3.171315
  C       1.261354     -0.672813      3.683087
  C       1.006460      0.438251      2.681009
  O       0.157552      1.303736      2.827090
  O       1.873918      0.409578      1.664825
  H       1.540902      1.048211      0.940615
  N       2.030472     -0.074211      4.786725
  H       2.221638     -0.809411      5.466815
  H       2.944052      0.215650      4.436529
  C      -2.544096     -1.245268     -1.531324
  H      -2.638572     -0.954597     -2.579493
  H      -2.997486     -2.232321     -1.400497
  H      -3.085196     -0.466557      0.399523
  C      -3.293002     -0.252260     -0.661043
  C      -2.852805      1.167919     -0.957278
  O      -2.669824      1.621158     -2.069916
  O      -2.770106      1.906647      0.164266
  H      -2.478667      2.804194     -0.096642
  N      -4.722524     -0.326768     -0.994055
  H      -5.039763     -1.273218     -0.784990
  H      -5.244469      0.279302     -0.360307
29
Coordinates from ORCA-job 2_Cu3_Cys2 E -6359.756398078835
  Cu      0.101698      0.539346     -0.781569
  Cu      1.145194      2.587990     -0.633677
  S      -0.760417     -1.413742     -1.162266
  Cu     -0.711643     -1.585787      0.994705
  S      -1.011729     -2.205975      3.020029
  C      -0.040984     -1.230560      4.222988
  H      -0.640272     -0.398653      4.601976
  H       0.194520     -1.891340      5.062706
  H       1.817166     -1.480634      3.174350
  C       1.266087     -0.677366      3.686489
  C       1.003649      0.433675      2.686293
  O       0.147336      1.291839      2.833737
  O       1.870984      0.414233      1.670255
  H       1.532560      1.051890      0.947750
  N       2.021817     -0.074051      4.796268
  H       2.219609     -0.809150      5.474467
  H       2.932849      0.231434      4.452805
  C      -2.547642     -1.247844     -1.520360
  H      -2.655611     -0.972974     -2.571438
  H      -2.999398     -2.232716     -1.369344
  H      -3.072598     -0.440009      0.403944
  C      -3.288644     -0.241745     -0.658238
  C      -2.853291      1.174105     -0.980309
  O      -2.668273      1.606704     -2.100704
  O      -2.778201      1.934789      0.126619
  H      -2.488222      2.827662     -0.150735
  N      -4.721229     -0.322234     -0.978580
  H      -5.035998     -1.265408     -0.751790
  H      -5.238606      0.293178     -0.350149
29
Coordinates from ORCA-job 2_Cu3_Cys2 E -6359.756384986244
  Cu      0.095363      0.540315     -0.776013
  Cu      1.132216      2.594162     -0.621866
  S      -0.763191     -1.409021     -1.173780
  Cu     -0.695520     -1.596440      0.982685
  S      -0.970055     -2.250126      3.000935
  C      -0.028810     -1.259915      4.216391
  H      -0.647218     -0.439958      4.590430
  H       0.206638     -1.921472      5.055294
  H       1.839979     -1.474150      3.179428
  C       1.273275     -0.683065      3.693413
  C       0.996982      0.428524      2.697798
  O       0.127978      1.273371      2.848472
  O       1.865558      0.426249      1.682052
  H       1.517360      1.061887      0.962288
  N       2.010489     -0.074162      4.811764
  H       2.222045     -0.810207      5.484645
  H       2.915513      0.257149      4.476355
  C      -2.554418     -1.251466     -1.507572
  H      -2.679533     -0.995653     -2.561591
  H      -3.005049     -2.232668     -1.331253
  H      -3.052608     -0.403354      0.407351
  C      -3.283223     -0.227751     -0.656002
  C      -2.853398      1.180598     -1.015139
  O      -2.670538      1.584440     -2.146599
  O      -2.782400      1.970822      0.070631
  H      -2.494501      2.856432     -0.230727
  N      -4.720365     -0.314878     -0.956054
  H      -5.032841     -1.251093     -0.699146
  H      -5.229019      0.318086     -0.337967
29
Coordinates from ORCA-job 2_Cu3_Cys2 E -6359.756386676593
  Cu      0.089121      0.540788     -0.770098
  Cu      1.120298      2.599971     -0.606603
  S      -0.765470     -1.404834     -1.183137
  Cu     -0.677009     -1.611820      0.971521
  S      -0.924527     -2.297900      2.981802
  C      -0.015921     -1.291612      4.209772
  H      -0.654661     -0.484838      4.578167
  H       0.219528     -1.952000      5.049469
  H       1.864441     -1.467475      3.187958
  C       1.279314     -0.688786      3.700062
  C       0.986948      0.419629      2.705543
  O       0.102380      1.248114      2.855606
  O       1.858894      0.434907      1.691822
  H       1.499797      1.065961      0.972662
  N       1.995958     -0.069565      4.825555
  H       2.223163     -0.803920      5.495095
  H       2.893620      0.287729      4.497046
  C      -2.560325     -1.253825     -1.495219
  H      -2.700642     -1.015080     -2.551323
  H      -3.010295     -2.230936     -1.296142
  H      -3.028062     -0.365705      0.409769
  C      -3.276119     -0.213130     -0.653391
  C      -2.852207      1.187168     -1.049325
  O      -2.670243      1.561788     -2.191002
  O      -2.788722      2.006475      0.014528
  H      -2.506338      2.885502     -0.310159
  N      -4.717919     -0.305135     -0.929833
  H      -5.028485     -1.232453     -0.640306
  H      -5.215806      0.347639     -0.323619
29
Coordinates from ORCA-job 2_Cu3_Cys2 E -6359.756420580688
  Cu      0.079175      0.541987     -0.769082
  Cu      1.107653      2.606584     -0.599861
  S      -0.768678     -1.402190     -1.190834
  Cu     -0.659576     -1.626983      0.960488
  S      -0.875957     -2.346315      2.961105
  C      -0.002441     -1.325082      4.202752
  H      -0.662256     -0.533601      4.567303
  H       0.234432     -1.984609      5.042722
  H       1.890363     -1.459042      3.199193
  C       1.285027     -0.694034      3.708022
  C       0.977142      0.411455      2.714677
  O       0.077197      1.222956      2.863802
  O       1.853498      0.445017      1.704105
  H       1.485246      1.072938      0.985962
  N       1.979766     -0.065224      4.841730
  H       2.221724     -0.798340      5.507445
  H       2.870232      0.315948      4.520459
  C      -2.567079     -1.256579     -1.484353
  H      -2.720527     -1.034225     -2.542165
  H      -3.016762     -2.229162     -1.263776
  H      -2.999496     -0.327459      0.409409
  C      -3.268495     -0.198802     -0.651910
  C      -2.851244      1.192640     -1.085571
  O      -2.671849      1.537784     -2.237036
  O      -2.794945      2.040348     -0.044288
  H      -2.523275      2.913616     -0.392687
  N      -4.715117     -0.293554     -0.899842
  H      -5.023614     -1.210010     -0.575502
  H      -5.199433      0.380593     -0.306045
29
Coordinates from ORCA-job 2_Cu3_Cys2 E -6359.756506195456
  Cu      0.073142      0.536995     -0.766312
  Cu      1.094771      2.608144     -0.582516
  S      -0.770175     -1.404822     -1.199261
  Cu     -0.639394     -1.649707      0.947111
  S      -0.827350     -2.393933      2.939028
  C       0.006555     -1.353325      4.191631
  H      -0.674160     -0.575046      4.546547
  H       0.243016     -2.005910      5.037252
  H       1.914689     -1.450188      3.213853
  C       1.287234     -0.696828      3.712611
  C       0.967644      0.401089      2.714222
  O       0.055717      1.199783      2.858110
  O       1.847754      0.444100      1.706644
  H       1.473151      1.066662      0.986050
  N       1.956565     -0.053357      4.853681
  H       2.208069     -0.782059      5.520782
  H       2.842339      0.345013      4.540243
  C      -2.572003     -1.256908     -1.477180
  H      -2.735022     -1.046077     -2.535848
  H      -3.023043     -2.225121     -1.240866
  H      -2.964989     -0.296149      0.408752
  C      -3.257085     -0.185812     -0.648659
  C      -2.848509      1.199248     -1.112198
  O      -2.670546      1.521835     -2.270487
  O      -2.802117      2.068645     -0.088435
  H      -2.545871      2.939272     -0.454667
  N      -4.708396     -0.280753     -0.864373
  H      -5.013603     -1.187987     -0.512085
  H      -5.177672      0.409851     -0.277407
29
Coordinates from ORCA-job 2_Cu3_Cys2 E -6359.756643630108
  Cu      0.070801      0.532831     -0.770054
  Cu      1.095329      2.605304     -0.579658
  S      -0.773054     -1.408499     -1.203491
  Cu     -0.624972     -1.665973      0.938409
  S      -0.781751     -2.435552      2.920999
  C       0.015827     -1.377884      4.182286
  H      -0.682701     -0.611044      4.528014
  H       0.253671     -2.023211      5.033257
  H       1.938707     -1.442712      3.230487
  C       1.291639     -0.699830      3.719276
  C       0.967178      0.393276      2.716678
  O       0.047218      1.183655      2.854518
  O       1.850838      0.440954      1.713174
  H       1.476194      1.061573      0.990309
  N       1.937008     -0.045627      4.868859
  H       2.191933     -0.771886      5.537453
  H       2.821127      0.363330      4.564485
  C      -2.577780     -1.256154     -1.471517
  H      -2.745938     -1.058606     -2.531786
  H      -3.029853     -2.219948     -1.220092
  H      -2.938836     -0.266880      0.404788
  C      -3.249776     -0.173008     -0.648991
  C      -2.852354      1.207315     -1.137873
  O      -2.670643      1.511258     -2.300430
  O      -2.826210      2.095588     -0.129413
  H      -2.591869      2.965896     -0.510282
  N      -4.704425     -0.269556     -0.836538
  H      -5.004808     -1.170030     -0.463285
  H      -5.161788      0.432077     -0.253359
29
Coordinates from ORCA-job 2_Cu3_Cys2 E -6359.756775731803
  Cu      0.076266      0.524319     -0.775045
  Cu      1.092308      2.599517     -0.575353
  S      -0.770742     -1.416108     -1.213282
  Cu     -0.608122     -1.687692      0.925346
  S      -0.742352     -2.474636      2.901200
  C       0.016721     -1.396442      4.167383
  H      -0.698045     -0.637183      4.496605
  H       0.253729     -2.030415      5.027139
  H       1.955056     -1.436358      3.243127
  C       1.289939     -0.701901      3.720067
  C       0.964373      0.384122      2.709927
  O       0.039336      1.170475      2.840643
  O       1.849815      0.431194      1.709788
  H       1.478385      1.048448      0.983053
  N       1.908940     -0.035214      4.877629
  H       2.162619     -0.756957      5.551708
  H       2.792949      0.382456      4.584867
  C      -2.578062     -1.252071     -1.464531
  H      -2.754005     -1.065772     -2.525489
  H      -3.031662     -2.211318     -1.198916
  H      -2.904612     -0.242001      0.406017
  C      -3.234834     -0.159872     -0.643125
  C      -2.854200      1.217592     -1.152939
  O      -2.670093      1.507357     -2.318457
  O      -2.846007      2.120742     -0.156604
  H      -2.630106      2.990615     -0.548795
  N      -4.692913     -0.260948     -0.799704
  H      -4.984253     -1.159087     -0.413813
  H      -5.139717      0.443795     -0.212224
29
Coordinates from ORCA-job 2_Cu3_Cys2 E -6359.756895981687
  Cu      0.084201      0.516238     -0.785506
  Cu      1.095266      2.590950     -0.583068
  S      -0.769417     -1.422585     -1.226410
  Cu     -0.589164     -1.706639      0.909373
  S      -0.699093     -2.514855      2.877702
  C       0.017957     -1.417396      4.150538
  H      -0.713732     -0.667527      4.463513
  H       0.254728     -2.042085      5.017080
  H       1.971018     -1.427668      3.253956
  C       1.287626     -0.703981      3.721325
  C       0.960581      0.376846      2.706356
  O       0.028993      1.157342      2.830377
  O       1.847779      0.426415      1.709728
  H       1.479146      1.041423      0.980948
  N       1.877458     -0.027747      4.888758
  H       2.130848     -0.745902      5.566780
  H       2.759701      0.403518      4.610650
  C      -2.578884     -1.247727     -1.455195
  H      -2.766557     -1.073151     -2.516016
  H      -3.033150     -2.202003     -1.173240
  H      -2.868531     -0.214975      0.408429
  C      -3.219086     -0.145673     -0.635253
  C      -2.856761      1.226863     -1.169372
  O      -2.674034      1.500171     -2.338666
  O      -2.863565      2.146703     -0.187749
  H      -2.664720      3.013811     -0.594033
  N      -4.680557     -0.252095     -0.758782
  H      -4.961082     -1.147575     -0.358980
  H      -5.116261      0.455962     -0.167019
29
Coordinates from ORCA-job 2_Cu3_Cys2 E -6359.756994705707
  Cu      0.089459      0.509674     -0.794005
  Cu      1.092356      2.584850     -0.586466
  S      -0.769040     -1.426966     -1.241432
  Cu     -0.568674     -1.726207      0.890959
  S      -0.651347     -2.555919      2.851908
  C       0.020798     -1.440664      4.132727
  H      -0.729301     -0.702816      4.430052
  H       0.256756     -2.057611      5.004999
  H       1.987807     -1.416809      3.265238
  C       1.285006     -0.705491      3.722633
  C       0.954004      0.368693      2.702272
  O       0.014744      1.141623      2.819767
  O       1.843131      0.422219      1.708374
  H       1.474016      1.033290      0.977380
  N       1.843312     -0.019300      4.899528
  H       2.098718     -0.732796      5.581663
  H       2.721477      0.429567      4.636785
  C      -2.580388     -1.244285     -1.444609
  H      -2.782718     -1.080151     -2.504319
  H      -3.034728     -2.193515     -1.146153
  H      -2.829965     -0.187138      0.411112
  C      -3.202638     -0.131589     -0.625918
  C      -2.857137      1.234065     -1.186388
  O      -2.677114      1.488343     -2.360186
  O      -2.874964      2.171701     -0.221513
  H      -2.688943      3.033949     -0.643449
  N      -4.666988     -0.241026     -0.714970
  H      -4.937136     -1.132147     -0.298579
  H      -5.089790      0.473112     -0.121187
29
Coordinates from ORCA-job 2_Cu3_Cys2 E -6359.757127577156
  Cu      0.091974      0.503887     -0.809161
  Cu      1.088925      2.576037     -0.600182
  S      -0.771794     -1.431784     -1.260160
  Cu     -0.547923     -1.745937      0.868018
  S      -0.595852     -2.599148      2.822209
  C       0.025203     -1.465956      4.111868
  H      -0.744527     -0.742375      4.393062
  H       0.260599     -2.076323      4.988876
  H       2.006863     -1.401573      3.278437
  C       1.282222     -0.705141      3.724460
  C       0.946605      0.360829      2.697815
  O      -0.003261      1.122597      2.805035
  O       1.839599      0.420365      1.707769
  H       1.467660      1.026555      0.975006
  N       1.801999     -0.009069      4.912452
  H       2.058931     -0.716963      5.599678
  H       2.674108      0.462194      4.669793
  C      -2.583999     -1.241319     -1.434321
  H      -2.803992     -1.083823     -2.491404
  H      -3.039156     -2.185314     -1.120814
  H      -2.788842     -0.162231      0.414752
  C      -3.185475     -0.118214     -0.614114
  C      -2.854556      1.239014     -1.200541
  O      -2.680282      1.474616     -2.378901
  O      -2.878500      2.193654     -0.252486
  H      -2.701865      3.049631     -0.690365
  N      -4.652443     -0.227126     -0.666658
  H      -4.912322     -1.113833     -0.234538
  H      -5.059189      0.493407     -0.069360
29
Coordinates from ORCA-job 2_Cu3_Cys2 E -6359.757313432756
  Cu      0.098627      0.493534     -0.818342
  Cu      1.089564      2.562439     -0.600348
  S      -0.774916     -1.436759     -1.281330
  Cu     -0.513254     -1.780483      0.838476
  S      -0.509872     -2.661452      2.782892
  C       0.034182     -1.502804      4.083183
  H      -0.765012     -0.802012      4.338768
  H       0.266995     -2.101080      4.969148
  H       2.033948     -1.378957      3.299259
  C       1.277888     -0.704390      3.726108
  C       0.934192      0.346797      2.687558
  O      -0.029188      1.093806      2.780993
  O       1.832339      0.412145      1.702336
  H       1.456772      1.009034      0.964265
  N       1.743471      0.008489      4.925664
  H       2.004507     -0.689342      5.621429
  H       2.604887      0.510093      4.706988
  C      -2.588586     -1.236833     -1.416592
  H      -2.831819     -1.091371     -2.470246
  H      -3.043426     -2.173263     -1.080739
  H      -2.734891     -0.124048      0.418665
  C      -3.162908     -0.098066     -0.598485
  C      -2.852265      1.247555     -1.220274
  O      -2.680571      1.456546     -2.403956
  O      -2.891046      2.225503     -0.296409
  H      -2.730343      3.073112     -0.755778
  N      -4.631762     -0.204732     -0.603262
  H      -4.879109     -1.083596     -0.148250
  H      -5.017693      0.526791     -0.005500
29
Coordinates from ORCA-job 2_Cu3_Cys2 E -6359.757519189946
  Cu      0.097977      0.484100     -0.836764
  Cu      1.084085      2.552564     -0.623903
  S      -0.782796     -1.444111     -1.300625
  Cu     -0.479196     -1.807606      0.809868
  S      -0.415124     -2.718939      2.740368
  C       0.049883     -1.544766      4.056179
  H      -0.779123     -0.871924      4.291212
  H       0.284087     -2.135520      4.946836
  H       2.064227     -1.351719      3.324079
  C       1.275962     -0.703781      3.733212
  C       0.923963      0.336497      2.686918
  O      -0.052691      1.067805      2.769390
  O       1.827036      0.411446      1.707426
  H       1.449799      1.002005      0.965870
  N       1.685611      0.019884      4.946006
  H       1.951829     -0.670834      5.646801
  H       2.534350      0.552300      4.752010
  C      -2.597699     -1.234418     -1.397554
  H      -2.863820     -1.106500     -2.447873
  H      -3.051179     -2.161366     -1.034688
  H      -2.686048     -0.082336      0.417330
  C      -3.144531     -0.076814     -0.587118
  C      -2.852873      1.254637     -1.246485
  O      -2.686212      1.435199     -2.435414
  O      -2.900388      2.255984     -0.347993
  H      -2.754149      3.093530     -0.829784
  N      -4.613755     -0.178687     -0.544544
  H      -4.849628     -1.046792     -0.063449
  H      -4.978885      0.566817      0.048912
29
Coordinates from ORCA-job 2_Cu3_Cys2 E -6359.757775138480
  Cu      0.064999      0.476152     -0.864719
  Cu      1.061784      2.534833     -0.680176
  S      -0.816363     -1.455170     -1.319094
  Cu     -0.447277     -1.838579      0.773879
  S      -0.275585     -2.776740      2.692387
  C       0.092140     -1.593744      4.031368
  H      -0.772502     -0.961197      4.249820
  H       0.332474     -2.184337      4.920656
  H       2.113594     -1.299216      3.361433
  C       1.285639     -0.690267      3.750720
  C       0.914688      0.333177      2.695386
  O      -0.087397      1.029589      2.756598
  O       1.829205      0.430782      1.726044
  H       1.437804      1.007669      0.980408
  N       1.624479      0.042727      4.976995
  H       1.900307     -0.637729      5.683691
  H       2.451596      0.617331      4.812830
  C      -2.630677     -1.239875     -1.385368
  H      -2.915637     -1.111923     -2.430778
  H      -3.090274     -2.158689     -1.009895
  H      -2.678584     -0.069713      0.421622
  C      -3.151008     -0.066072     -0.576507
  C      -2.834735      1.250188     -1.254941
  O      -2.668239      1.411882     -2.446753
  O      -2.854731      2.264625     -0.370695
  H      -2.684639      3.089656     -0.866328
  N      -4.622320     -0.137595     -0.520623
  H      -4.871076     -0.994825     -0.026622
  H      -4.966954      0.623715      0.064884
29
Coordinates from ORCA-job 2_Cu3_Cys2 E -6359.757941378119
  Cu      0.083598      0.462518     -0.846022
  Cu      1.063936      2.532846     -0.631464
  S      -0.805995     -1.458239     -1.322774
  Cu     -0.422114     -1.861323      0.763768
  S      -0.228941     -2.808322      2.669694
  C       0.090469     -1.613473      4.010225
  H      -0.788826     -0.993572      4.207198
  H       0.322123     -2.191210      4.910236
  H       2.119349     -1.295381      3.371027
  C       1.277278     -0.696877      3.745265
  C       0.904938      0.320975      2.683821
  O      -0.100182      1.014096      2.743700
  O       1.819619      0.419368      1.716685
  H       1.430158      0.992614      0.966366
  N       1.590563      0.044403      4.974623
  H       1.867271     -0.632260      5.684954
  H       2.414648      0.625169      4.816535
  C      -2.622560     -1.235375     -1.363452
  H      -2.922436     -1.133479     -2.407562
  H      -3.075477     -2.145300     -0.959248
  H      -2.626295     -0.023235      0.414330
  C      -3.126186     -0.046084     -0.570298
  C      -2.843542      1.261189     -1.282920
  O      -2.679453      1.398567     -2.478032
  O      -2.895799      2.295761     -0.422582
  H      -2.760146      3.115107     -0.937789
  N      -4.593756     -0.125153     -0.469246
  H      -4.823923     -0.972774      0.049825
  H      -4.927608      0.646098      0.109358
29
Coordinates from ORCA-job 2_Cu3_Cys2 E -6359.758121380907
  Cu      0.091436      0.445955     -0.844841
  Cu      1.067829      2.519409     -0.621902
  S      -0.817300     -1.461365     -1.340410
  Cu     -0.382264     -1.890285      0.729330
  S      -0.095575     -2.860014      2.609660
  C       0.118282     -1.663444      3.968796
  H      -0.795612     -1.086679      4.137976
  H       0.344635     -2.235153      4.874070
  H       2.154365     -1.256503      3.406746
  C       1.274866     -0.695837      3.751443
  C       0.895083      0.308876      2.679832
  O      -0.123629      0.983408      2.728297
  O       1.815205      0.417722      1.719467
  H       1.422961      0.979567      0.961581
  N       1.510603      0.050841      4.994696
  H       1.791041     -0.617869      5.711160
  H       2.314204      0.666851      4.868603
  C      -2.634282     -1.232645     -1.328514
  H      -2.967478     -1.164325     -2.365272
  H      -3.076888     -2.126700     -0.879791
  H      -2.567863      0.038308      0.405362
  C      -3.106029     -0.016921     -0.557917
  C      -2.851326      1.267133     -1.322556
  O      -2.698947      1.363325     -2.523204
  O      -2.915473      2.332066     -0.500079
  H      -2.801602      3.134334     -1.046219
  N      -4.567724     -0.088480     -0.396785
  H      -4.779608     -0.917577      0.158885
  H      -4.878201      0.702660      0.167810
29
Coordinates from ORCA-job 2_Cu3_Cys2 E -6359.758440920696
  Cu      0.080055      0.419238     -0.831344
  Cu      1.084213      2.490946     -0.608818
  S      -0.852321     -1.467680     -1.354943
  Cu     -0.390597     -1.909502      0.701625
  S       0.007061     -2.872406      2.560399
  C       0.164827     -1.688009      3.940380
  H      -0.777088     -1.156597      4.105890
  H       0.382391     -2.271068      4.840889
  H       2.196681     -1.197646      3.445296
  C       1.285064     -0.671818      3.758476
  C       0.890999      0.312454      2.671445
  O      -0.145319      0.958164      2.701453
  O       1.823291      0.432892      1.720124
  H       1.418424      0.967095      0.945769
  N       1.453489      0.082603      5.008599
  H       1.741675     -0.576053      5.731446
  H       2.236396      0.727644      4.902424
  C      -2.670696     -1.238775     -1.326642
  H      -3.015670     -1.166453     -2.359613
  H      -3.115335     -2.128910     -0.871825
  H      -2.580265      0.023966      0.408691
  C      -3.124761     -0.019730     -0.551262
  C      -2.832116      1.262249     -1.311349
  O      -2.694325      1.359730     -2.514165
  O      -2.847684      2.323570     -0.482374
  H      -2.703592      3.122393     -1.026917
  N      -4.582762     -0.064705     -0.391495
  H      -4.810765     -0.890059      0.163572
  H      -4.880559      0.733123      0.170495
29
Coordinates from ORCA-job 2_Cu3_Cys2 E -6359.758608414095
  Cu      0.073077      0.399422     -0.898277
  Cu      1.078053      2.475661     -0.744230
  S      -0.883445     -1.483835     -1.391404
  Cu     -0.300954     -1.935936      0.634952
  S       0.242640     -2.921572      2.444282
  C       0.221242     -1.774796      3.867114
  H      -0.765934     -1.319078      3.989735
  H       0.431473     -2.376710      4.756920
  H       2.234618     -1.123144      3.505822
  C       1.271863     -0.674011      3.782472
  C       0.864057      0.309904      2.700010
  O      -0.204549      0.899848      2.703702
  O       1.815756      0.485425      1.776494
  H       1.404575      1.015243      1.002540
  N       1.310991      0.045221      5.062958
  H       1.607364     -0.614904      5.780733
  H       2.044201      0.753233      5.024334
  C      -2.693293     -1.238136     -1.247715
  H      -3.111409     -1.228373     -2.255633
  H      -3.110408     -2.091072     -0.704509
  H      -2.466889      0.138967      0.385076
  C      -3.084547      0.034278     -0.525215
  C      -2.844838      1.258286     -1.391536
  O      -2.738283      1.266028     -2.600648
  O      -2.871075      2.378641     -0.646580
  H      -2.764960      3.135176     -1.255709
  N      -4.526363      0.011101     -0.253581
  H      -4.713962     -0.774754      0.369478
  H      -4.778290      0.846543      0.274639
29
Coordinates from ORCA-job 2_Cu3_Cys2 E -6359.757414378899
  Cu      0.189401      0.420487     -0.929059
  Cu      1.193649      2.469910     -0.831606
  S      -0.822291     -1.450854     -1.389241
  Cu     -0.210215     -1.944657      0.636467
  S       0.258822     -2.988054      2.458412
  C       0.178115     -1.801137      3.833953
  H      -0.816435     -1.354898      3.918996
  H       0.413532     -2.330136      4.761551
  H       2.178346     -1.088692      3.487307
  C       1.188958     -0.666416      3.715998
  C       0.806208      0.244297      2.569029
  O      -0.262427      0.835720      2.502025
  O       1.773716      0.366745      1.662576
  H       1.408594      0.872182      0.863548
  N       1.143521      0.109478      4.958892
  H       1.429274     -0.497860      5.724282
  H       1.826785      0.867468      4.930438
  C      -2.618686     -1.206658     -1.194291
  H      -3.062167     -1.177627     -2.189503
  H      -3.011940     -2.079291     -0.666114
  H      -2.422094      0.132533      0.486037
  C      -3.023227      0.046565     -0.438773
  C      -2.827962      1.281993     -1.281596
  O      -2.782750      1.316692     -2.492324
  O      -2.814148      2.383362     -0.513909
  H      -2.725545      3.156222     -1.103015
  N      -4.473821     -0.009248     -0.163991
  H      -4.643368     -0.816187      0.435548
  H      -4.731136      0.804716      0.394587
29
Coordinates from ORCA-job 2_Cu3_Cys2 E -6359.758963662799
  Cu      0.125270      0.372995     -0.926658
  Cu      1.115812      2.447104     -0.771368
  S      -0.873420     -1.495369     -1.409666
  Cu     -0.262744     -1.977360      0.604373
  S       0.306228     -2.954277      2.416252
  C       0.219066     -1.799547      3.824857
  H      -0.788003     -1.384529      3.927384
  H       0.448079     -2.369871      4.730489
  H       2.213008     -1.061206      3.508122
  C       1.222148     -0.652657      3.747629
  C       0.816862      0.295053      2.635932
  O      -0.254378      0.882907      2.615423
  O       1.772265      0.451801      1.715150
  H       1.377228      0.965653      0.928464
  N       1.184731      0.084576      5.016577
  H       1.485161     -0.549552      5.755411
  H       1.878506      0.832309      4.996169
  C      -2.674536     -1.231026     -1.220681
  H      -3.117335     -1.211835     -2.217532
  H      -3.082978     -2.086922     -0.675307
  H      -2.413312      0.125416      0.427145
  C      -3.042474      0.037959     -0.477205
  C      -2.818999      1.266619     -1.335056
  O      -2.758490      1.287982     -2.547111
  O      -2.791805      2.378052     -0.576554
  H      -2.686281      3.141885     -1.176541
  N      -4.481988      0.021051     -0.177156
  H      -4.662035     -0.771540      0.439259
  H      -4.714874      0.850987      0.368422
29
Coordinates from ORCA-job 2_Cu3_Cys2 E -6359.759265989873
  Cu      0.128266      0.330884     -0.950929
  Cu      1.140783      2.393342     -0.825315
  S      -0.896442     -1.520162     -1.444433
  Cu     -0.216161     -2.015316      0.547430
  S       0.435989     -2.962320      2.348105
  C       0.236706     -1.825837      3.762518
  H      -0.791455     -1.457377      3.829126
  H       0.454282     -2.402493      4.667012
  H       2.207520     -0.996608      3.542776
  C       1.189759     -0.633655      3.738619
  C       0.791162      0.299217      2.611158
  O      -0.297052      0.850908      2.553196
  O       1.770033      0.479768      1.719346
  H       1.378368      0.970321      0.914340
  N       1.059629      0.091478      5.007690
  H       1.355441     -0.533179      5.756120
  H       1.716811      0.871275      5.023011
  C      -2.685164     -1.232963     -1.181321
  H      -3.170717     -1.218579     -2.157955
  H      -3.081368     -2.075784     -0.607658
  H      -2.332325      0.138240      0.434931
  C      -3.002685      0.049931     -0.439218
  C      -2.794178      1.264765     -1.321712
  O      -2.741519      1.265800     -2.533968
  O      -2.775073      2.388987     -0.583623
  H      -2.689587      3.142261     -1.199287
  N      -4.428690      0.059978     -0.079996
  H      -4.596380     -0.724680      0.549872
  H      -4.625240      0.898455      0.466389
29
Coordinates from ORCA-job 2_Cu3_Cys2 E -6359.759504300296
  Cu      0.155987      0.249895     -1.046151
  Cu      1.152034      2.323012     -0.991229
  S      -0.930171     -1.575457     -1.495321
  Cu     -0.120656     -2.060678      0.453533
  S       0.647867     -2.957458      2.233044
  C       0.264122     -1.875202      3.653986
  H      -0.794442     -1.596507      3.664419
  H       0.475065     -2.452070      4.560038
  H       2.162727     -0.869515      3.594176
  C       1.104534     -0.601598      3.711711
  C       0.708351      0.302012      2.559376
  O      -0.407314      0.783807      2.440327
  O       1.719128      0.534449      1.717364
  H       1.339647      0.983099      0.881668
  N       0.812396      0.090820      4.970918
  H       1.106681     -0.515637      5.734676
  H       1.394897      0.924613      5.041171
  C      -2.687242     -1.235598     -1.097922
  H      -3.248905     -1.230753     -2.032957
  H      -3.055748     -2.054835     -0.473981
  H      -2.165662      0.156903      0.449662
  C      -2.911017      0.069936     -0.361634
  C      -2.744827      1.262631     -1.284161
  O      -2.760868      1.235460     -2.497041
  O      -2.677897      2.402514     -0.574753
  H      -2.632230      3.141446     -1.211666
  N      -4.300660      0.126030      0.115619
  H      -4.436662     -0.643330      0.771290
  H      -4.428423      0.978669      0.660059
29
Coordinates from ORCA-job 2_Cu3_Cys2 E -6359.759447517846
  Cu      0.203037      0.191750     -1.106837
  Cu      1.187106      2.271843     -1.065797
  S      -0.924638     -1.613748     -1.520769
  Cu     -0.034765     -2.107482      0.391149
  S       0.760610     -2.962074      2.176959
  C       0.235144     -1.887473      3.558408
  H      -0.835140     -1.660610      3.509282
  H       0.434712     -2.425421      4.490934
  H       2.065040     -0.759832      3.583463
  C       0.986825     -0.560892      3.632082
  C       0.597088      0.287575      2.436145
  O      -0.537715      0.696046      2.245241
  O       1.631565      0.548083      1.634348
  H       1.266769      0.937244      0.761615
  N       0.579054      0.137173      4.854709
  H       0.867021     -0.435204      5.646944
  H       1.109809      1.003624      4.936517
  C      -2.652430     -1.237555     -1.025123
  H      -3.263049     -1.210067     -1.928919
  H      -3.003647     -2.056951     -0.391313
  H      -2.007992      0.114774      0.508227
  C      -2.802240      0.060964     -0.257921
  C      -2.658395      1.268503     -1.166080
  O      -2.737857      1.266163     -2.376911
  O      -2.533213      2.392078     -0.438643
  H      -2.519730      3.144610     -1.061578
  N      -4.160146      0.142638      0.301658
  H      -4.278437     -0.635885      0.949696
  H      -4.233674      0.986781      0.868737
29
Coordinates from ORCA-job 2_Cu3_Cys2 E -6359.759489917545
  Cu      0.224105      0.149045     -1.227225
  Cu      1.247101      2.211658     -1.175757
  S      -0.949942     -1.645361     -1.577186
  Cu     -0.040712     -2.126093      0.322823
  S       0.743883     -2.928650      2.132444
  C       0.213278     -1.866830      3.523849
  H      -0.856707     -1.641764      3.466899
  H       0.397603     -2.441454      4.437966
  H       2.035320     -0.729424      3.583884
  C       0.956013     -0.539685      3.637665
  C       0.560258      0.345582      2.472348
  O      -0.575298      0.770353      2.309219
  O       1.579012      0.607438      1.651715
  H       1.202771      1.015587      0.792042
  N       0.542449      0.114826      4.883007
  H       0.832961     -0.482620      5.656412
  H       1.070756      0.979981      4.994915
  C      -2.656408     -1.252903     -1.024013
  H      -3.298618     -1.226656     -1.906407
  H      -2.989911     -2.068362     -0.374625
  H      -1.930019      0.094820      0.475131
  C      -2.760235      0.047613     -0.251315
  C      -2.653019      1.255922     -1.160353
  O      -2.783439      1.259335     -2.367778
  O      -2.487671      2.378161     -0.433960
  H      -2.492886      3.134680     -1.052741
  N      -4.088039      0.138343      0.377212
  H      -4.176639     -0.639188      1.031403
  H      -4.125256      0.982302      0.948650
29
Coordinates from ORCA-job 2_Cu3_Cys2 E -6359.759804248926
  Cu      0.234699      0.180924     -1.157070
  Cu      1.289711      2.225559     -1.068833
  S      -0.940921     -1.610219     -1.556524
  Cu     -0.075283     -2.099404      0.366745
  S       0.714584     -2.933790      2.164193
  C       0.220173     -1.863648      3.557250
  H      -0.849369     -1.635706      3.508437
  H       0.407831     -2.429967      4.474919
  H       2.073912     -0.775981      3.597568
  C       1.000192     -0.553784      3.658460
  C       0.633588      0.335698      2.487616
  O      -0.479543      0.823763      2.342100
  O       1.655476      0.543165      1.654609
  H       1.304066      0.966793      0.795012
  N       0.613527      0.118464      4.903730
  H       0.890635     -0.480096      5.680717
  H       1.159027      0.974152      5.008915
  C      -2.665600     -1.242850     -1.053604
  H      -3.280267     -1.221927     -1.954783
  H      -3.008053     -2.065822     -0.419043
  H      -2.009609      0.121617      0.465830
  C      -2.815421      0.054557     -0.285402
  C      -2.712575      1.259685     -1.196123
  O      -2.807728      1.253664     -2.406768
  O      -2.592114      2.389346     -0.473058
  H      -2.581624      3.141850     -1.095535
  N      -4.160637      0.117069      0.308106
  H      -4.247473     -0.659094      0.964566
  H      -4.230495      0.962639      0.874192
29
Coordinates from ORCA-job 2_Cu3_Cys2 E -6359.759726464333
  Cu      0.236525      0.168530     -1.181564
  Cu      1.275008      2.223821     -1.111434
  S      -0.937968     -1.625361     -1.566319
  Cu     -0.034752     -2.107355      0.343780
  S       0.750675     -2.934240      2.147255
  C       0.201860     -1.869092      3.524761
  H      -0.870909     -1.660527      3.454880
  H       0.384030     -2.420777      4.452290
  H       2.031056     -0.741743      3.590843
  C       0.951866     -0.541925      3.631205
  C       0.587016      0.326164      2.443343
  O      -0.529774      0.795153      2.273430
  O       1.620866      0.539345      1.626731
  H       1.278233      0.941734      0.753462
  N       0.530159      0.132403      4.863348
  H       0.806671     -0.454133      5.649419
  H       1.057212      0.999227      4.969749
  C      -2.648635     -1.241748     -1.025703
  H      -3.281470     -1.208044     -1.913516
  H      -2.987131     -2.064550     -0.389101
  H      -1.939820      0.111432      0.480119
  C      -2.768277      0.052685     -0.247075
  C      -2.681623      1.261590     -1.155550
  O      -2.804136      1.260823     -2.363306
  O      -2.539524      2.387229     -0.431687
  H      -2.537812      3.140584     -1.053514
  N      -4.095880      0.120079      0.384622
  H      -4.167827     -0.658323      1.040196
  H      -4.144931      0.963675      0.955558
29
Coordinates from ORCA-job 2_Cu3_Cys2 E -6359.759726324377
  Cu      0.239017      0.158961     -1.210410
  Cu      1.286152      2.210573     -1.134779
  S      -0.944216     -1.633792     -1.575627
  Cu     -0.033176     -2.109853      0.328767
  S       0.759184     -2.924721      2.134337
  C       0.197773     -1.863897      3.510586
  H      -0.874853     -1.656188      3.435859
  H       0.373863     -2.419211      4.437559
  H       2.020839     -0.728128      3.591905
  C       0.940747     -0.534004      3.627488
  C       0.575677      0.338902      2.443454
  O      -0.539705      0.812082      2.276703
  O       1.606149      0.545558      1.621433
  H       1.258373      0.949050      0.750049
  N       0.508995      0.130547      4.860993
  H       0.784717     -0.460089      5.644378
  H       1.032969      0.998159      4.975062
  C      -2.650222     -1.246881     -1.021831
  H      -3.289434     -1.208742     -1.905040
  H      -2.987294     -2.069707     -0.384358
  H      -1.919430      0.100089      0.479252
  C      -2.756428      0.046677     -0.238672
  C      -2.670336      1.257815     -1.144534
  O      -2.796403      1.261789     -2.351911
  O      -2.522743      2.380945     -0.417204
  H      -2.522106      3.135973     -1.037095
  N      -4.076923      0.120078      0.407273
  H      -4.144925     -0.658666      1.062923
  H      -4.115551      0.963338      0.979662
29
Coordinates from ORCA-job 2_Cu3_Cys2 E -6359.759737747704
  Cu      0.239312      0.168029     -1.218804
  Cu      1.295087      2.217455     -1.118954
  S      -0.937353     -1.629298     -1.582435
  Cu     -0.046730     -2.099960      0.330753
  S       0.701170     -2.928318      2.149243
  C       0.178617     -1.846741      3.525340
  H      -0.889328     -1.613671      3.458295
  H       0.347966     -2.406680      4.450873
  H       2.027423     -0.752325      3.582419
  C       0.952493     -0.534039      3.632978
  C       0.591933      0.348650      2.454764
  O      -0.516607      0.840766      2.297797
  O       1.619572      0.541699      1.626103
  H       1.272771      0.953675      0.758633
  N       0.552824      0.140150      4.871821
  H       0.826658     -0.456188      5.651647
  H       1.097993      0.995805      4.977409
  C      -2.650527     -1.250424     -1.045571
  H      -3.278490     -1.203241     -1.936556
  H      -2.994892     -2.080869     -0.421984
  H      -1.940564      0.085781      0.477101
  C      -2.770187      0.034791     -0.249544
  C      -2.679533      1.255957     -1.141618
  O      -2.799055      1.273102     -2.349736
  O      -2.531756      2.371266     -0.401698
  H      -2.519990      3.132051     -1.014809
  N      -4.096883      0.094470      0.384859
  H      -4.164317     -0.688765      1.035294
  H      -4.146898      0.933532      0.962605
29
Coordinates from ORCA-job 2_Cu3_Cys2 E -6359.759731856412
  Cu      0.242096      0.157571     -1.230816
  Cu      1.302462      2.204048     -1.140138
  S      -0.946393     -1.635255     -1.583901
  Cu     -0.032879     -2.109325      0.318960
  S       0.753354     -2.922334      2.130232
  C       0.188141     -1.860084      3.503491
  H      -0.883644     -1.650630      3.421247
  H       0.354991     -2.421357      4.428587
  H       2.015552     -0.732095      3.596375
  C       0.936122     -0.532870      3.629734
  C       0.582673      0.346731      2.447206
  O      -0.526837      0.832418      2.278110
  O       1.618166      0.542982      1.628285
  H       1.280207      0.953292      0.757403
  N       0.500825      0.126612      4.863921
  H       0.772152     -0.467074      5.646516
  H       1.022856      0.994704      4.983466
  C      -2.648053     -1.247636     -1.020103
  H      -3.292039     -1.206901     -1.899823
  H      -2.984044     -2.070500     -0.382161
  H      -1.906055      0.109072      0.470379
  C      -2.752056      0.047028     -0.236696
  C      -2.683443      1.256041     -1.146749
  O      -2.814121      1.255201     -2.353773
  O      -2.540332      2.383214     -0.424273
  H      -2.538232      3.134352     -1.048941
  N      -4.064007      0.111979      0.426811
  H      -4.113526     -0.661934      1.089905
  H      -4.103228      0.959404      0.992969
29
Coordinates from ORCA-job 2_Cu3_Cys2 E -6359.759709922520
  Cu      0.242551      0.149043     -1.232496
  Cu      1.300169      2.197106     -1.136505
  S      -0.948990     -1.641571     -1.584424
  Cu     -0.027219     -2.112957      0.315114
  S       0.770684     -2.919083      2.124785
  C       0.187263     -1.859432      3.492296
  H      -0.885162     -1.656550      3.401814
  H       0.350348     -2.415568      4.421194
  H       2.007540     -0.720679      3.598026
  C       0.926873     -0.527560      3.622436
  C       0.576235      0.347417      2.435426
  O      -0.532452      0.833160      2.262893
  O       1.612832      0.538906      1.616948
  H       1.274718      0.943547      0.743133
  N       0.478471      0.131462      4.852238
  H       0.747804     -0.459369      5.637586
  H       0.994969      1.002511      4.973984
  C      -2.648337     -1.248561     -1.015455
  H      -3.294146     -1.202256     -1.893480
  H      -2.986227     -2.071779     -0.379148
  H      -1.892693      0.100775      0.473968
  C      -2.743132      0.044103     -0.228005
  C      -2.672579      1.255969     -1.134705
  O      -2.802326      1.259693     -2.341709
  O      -2.529973      2.380371     -0.408009
  H      -2.531953      3.134024     -1.029548
  N      -4.050823      0.113767      0.442800
  H      -4.100169     -0.660701      1.105273
  H      -4.083569      0.960869      1.009792
29
Coordinates from ORCA-job 2_Cu3_Cys2 E -6359.759718559087
  Cu      0.242526      0.154717     -1.232521
  Cu      1.308766      2.199220     -1.137473
  S      -0.946153     -1.636988     -1.583875
  Cu     -0.025880     -2.109786      0.315397
  S       0.764726     -2.920387      2.126486
  C       0.184775     -1.857805      3.493611
  H      -0.886444     -1.649216      3.401799
  H       0.344218     -2.414289      4.422947
  H       2.010079     -0.727183      3.599890
  C       0.930280     -0.529419      3.624922
  C       0.582388      0.347964      2.438905
  O      -0.523859      0.840297      2.269012
  O       1.617918      0.533425      1.617812
  H       1.279316      0.939353      0.744803
  N       0.485125      0.130600      4.855294
  H       0.753006     -0.461456      5.640219
  H       1.004650      0.999852      4.977035
  C      -2.647102     -1.248756     -1.016366
  H      -3.292548     -1.205458     -1.894888
  H      -2.982878     -2.072420     -0.379457
  H      -1.898380      0.104278      0.473613
  C      -2.747265      0.044286     -0.229978
  C      -2.678205      1.255878     -1.137129
  O      -2.806258      1.258767     -2.344354
  O      -2.538404      2.381028     -0.410859
  H      -2.539990      3.134292     -1.032936
  N      -4.056337      0.110287      0.438350
  H      -4.103855     -0.662893      1.102492
  H      -4.093505      0.958466      1.003474
29
Coordinates from ORCA-job 2_Cu3_Cys2 E -6359.759725235817
  Cu      0.242733      0.154324     -1.236336
  Cu      1.311625      2.198232     -1.136502
  S      -0.945698     -1.636943     -1.586984
  Cu     -0.025220     -2.110471      0.311965
  S       0.759834     -2.920937      2.125994
  C       0.180227     -1.855246      3.491022
  H      -0.890233     -1.644343      3.395574
  H       0.335066     -2.412669      4.420602
  H       2.007560     -0.728333      3.600829
  C       0.928086     -0.528240      3.623871
  C       0.584594      0.349871      2.437189
  O      -0.519686      0.846276      2.265961
  O       1.621770      0.531676      1.617218
  H       1.285631      0.938319      0.743853
  N       0.481820      0.132531      4.853195
  H       0.748599     -0.458930      5.638961
  H       1.000982      1.001991      4.974885
  C      -2.645793     -1.249128     -1.016852
  H      -3.292491     -1.204537     -1.894465
  H      -2.980829     -2.073766     -0.380753
  H      -1.894895      0.103031      0.473239
  C      -2.745654      0.042675     -0.228208
  C      -2.680324      1.255668     -1.133767
  O      -2.811929      1.260024     -2.340670
  O      -2.537105      2.380004     -0.406685
  H      -2.538070      3.133861     -1.028159
  N      -4.052794      0.105215      0.443925
  H      -4.095990     -0.667366      1.109058
  H      -4.091107      0.953866      1.008263
29
Coordinates from ORCA-job 2_Cu3_Cys2 E -6359.759700450702
  Cu      0.242529      0.152725     -1.239479
  Cu      1.315566      2.194621     -1.139085
  S      -0.946657     -1.637535     -1.589165
  Cu     -0.023095     -2.110045      0.308771
  S       0.762076     -2.919594      2.123957
  C       0.177827     -1.853171      3.486361
  H      -0.892057     -1.641481      3.385855
  H       0.327492     -2.410348      4.416935
  H       2.005467     -0.727390      3.604297
  C       0.926011     -0.526581      3.622764
  C       0.587915      0.351946      2.434980
  O      -0.513992      0.853082      2.262260
  O       1.626464      0.528313      1.615465
  H       1.291927      0.935450      0.741798
  N       0.474637      0.133731      4.850377
  H       0.738969     -0.457317      5.637250
  H       0.992133      1.003899      4.973991
  C      -2.645754     -1.249615     -1.016016
  H      -3.293804     -1.203534     -1.892522
  H      -2.980088     -2.075063     -0.380602
  H      -1.891590      0.100442      0.474277
  C      -2.743931      0.041051     -0.225411
  C      -2.680192      1.255184     -1.129591
  O      -2.813959      1.260991     -2.336227
  O      -2.536177      2.378684     -0.401425
  H      -2.539303      3.133393     -1.021800
  N      -4.049507      0.102726      0.449575
  H      -4.090733     -0.669579      1.115146
  H      -4.087465      0.951671      1.013486
29
Coordinates from ORCA-job 2_Cu3_Cys2 E -6359.759716622660
  Cu      0.242134      0.154752     -1.236911
  Cu      1.318225      2.194779     -1.135201
  S      -0.945599     -1.635525     -1.587356
  Cu     -0.022551     -2.111573      0.310039
  S       0.764375     -2.921211      2.125044
  C       0.177837     -1.853052      3.485015
  H      -0.891421     -1.639588      3.381342
  H       0.323683     -2.409214      4.416797
  H       2.006361     -0.728842      3.605602
  C       0.927034     -0.527069      3.622234
  C       0.591259      0.351447      2.433951
  O      -0.509761      0.853969      2.260041
  O       1.630395      0.525457      1.614556
  H       1.295497      0.932804      0.741152
  N       0.474018      0.133678      4.849052
  H       0.737861     -0.456693      5.636567
  H       0.990678      1.004328      4.972745
  C      -2.645272     -1.249300     -1.014880
  H      -3.293186     -1.204244     -1.891477
  H      -2.978760     -2.074875     -0.379186
  H      -1.893111      0.101390      0.475534
  C      -2.744987      0.041479     -0.224767
  C      -2.681309      1.255281     -1.129465
  O      -2.814280      1.260468     -2.336111
  O      -2.539316      2.379115     -0.401613
  H      -2.544394      3.133656     -1.022073
  N      -4.051271      0.102519      0.448812
  H      -4.092641     -0.669260      1.114969
  H      -4.090788      0.951979      1.011812
29
Coordinates from ORCA-job 2_Cu3_Cys2 E -6359.759726381953
  Cu      0.241547      0.154333     -1.236497
  Cu      1.314151      2.195863     -1.137722
  S      -0.945589     -1.636215     -1.586905
  Cu     -0.022700     -2.111392      0.310881
  S       0.764271     -2.921369      2.125417
  C       0.178641     -1.853759      3.486063
  H      -0.890779     -1.640470      3.383467
  H       0.325235     -2.409882      4.417734
  H       2.006967     -0.728812      3.605041
  C       0.927569     -0.527564      3.622698
  C       0.590177      0.351130      2.434959
  O      -0.511834      0.851732      2.261597
  O       1.628986      0.527968      1.615822
  H       1.293468      0.934907      0.742436
  N       0.475814      0.132908      4.850268
  H       0.740884     -0.457627      5.637261
  H       0.992765      1.003452      4.973538
  C      -2.645510     -1.249301     -1.015140
  H      -3.293093     -1.204823     -1.891995
  H      -2.979109     -2.074564     -0.379110
  H      -1.893770      0.101009      0.475487
  C      -2.745033      0.041756     -0.225537
  C      -2.680421      1.255389     -1.130401
  O      -2.813920      1.260302     -2.337019
  O      -2.537479      2.379200     -0.402798
  H      -2.542679      3.133821     -1.023189
  N      -4.051944      0.103947      0.446892
  H      -4.095001     -0.668286      1.112424
  H      -4.090902      0.953000      1.010553
29
Coordinates from ORCA-job 2_Cu3_Cys2 E -6359.759704887418
  Cu      0.241781      0.153093     -1.235354
  Cu      1.309508      2.196980     -1.137146
  S      -0.945940     -1.636988     -1.586470
  Cu     -0.021885     -2.112331      0.310637
  S       0.766950     -2.921363      2.124590
  C       0.179640     -1.854956      3.485272
  H      -0.890056     -1.643067      3.382451
  H       0.326199     -2.411032      4.417001
  H       2.006713     -0.727887      3.604472
  C       0.927104     -0.527943      3.622543
  C       0.588437      0.351157      2.435419
  O      -0.514268      0.850458      2.262532
  O       1.626969      0.530049      1.616408
  H       1.291056      0.936535      0.742882
  N       0.475079      0.131259      4.850780
  H       0.741639     -0.459409      5.637190
  H       0.991125      1.002340      4.974197
  C      -2.645365     -1.249342     -1.013429
  H      -3.293821     -1.206334     -1.889722
  H      -2.978181     -2.073730     -0.375842
  H      -1.892648      0.102553      0.475174
  C      -2.744127      0.042836     -0.225461
  C      -2.679981      1.255348     -1.131846
  O      -2.814404      1.258625     -2.338412
  O      -2.536162      2.380069     -0.405835
  H      -2.540630      3.133858     -1.027305
  N      -4.050867      0.106281      0.447392
  H      -4.094329     -0.665804      1.113076
  H      -4.088827      0.955402      1.011028
