43
Coordinates from ORCA-job 3_Cu4_Cys3 E -8719.805920082021
  Cu         -1.06323031212262     -1.45225270387073     -0.99709730620328
  S           0.24858988826701     -0.15373601866703      2.95974750147824
  S          -0.80996535830842     -0.50418185739044     -2.97456378910830
  Cu         -0.79590091752308     -1.22814438851438      1.29524867443223
  Cu         -0.56910288257169      0.96174096323105     -1.31053171778265
  Cu         -0.22014346087704      1.19218141277322      1.26830868290692
  S          -0.52404491192906      2.81887328246022     -0.14114877702895
  C           1.85926095521431     -0.83233645113926      2.41141310017640
  H           2.31651344504618     -1.34997445757781      3.25821180408890
  H           1.69470585449388     -1.56644334204212      1.60496120992091
  H           2.30321342063066      0.76588539841307      1.05544266204256
  C           2.81053619128108      0.22419751586018      1.87703668673381
  C           3.17353865507333      1.22732497172017      2.95431625639828
  O           3.33647721966861      0.96722329418525      4.12734089940756
  O           3.36081620527787      2.45919426272685      2.43971653308473
  H           3.64885804914705      3.04660903542247      3.16707772295042
  N           4.06026362674346     -0.41465433270027      1.44834460276433
  H           3.81972788373337     -1.10247565995675      0.72961735206909
  H           4.63961999311713      0.27938578236331      0.96948943502188
  C           1.18390721604658      3.47582591762641     -0.20451662572100
  H           1.13010795029937      4.50993857721932     -0.55454560597688
  H           1.59191895157465      3.47079230565174      0.81262842373710
  H           1.97333786599879      1.59630941228571     -0.88511444279904
  C           2.11076555656732      2.67859314950439     -1.10091197621733
  C           1.78714498659949      2.89775277397020     -2.56551619288400
  O           1.12243924405956      3.80491957728178     -3.02194543305539
  O           2.40123387740222      1.97578872009003     -3.33072298305897
  H           2.21265374160608      2.19146239569885     -4.26503965559943
  N           3.49215830748882      3.12574258756242     -0.89188036486457
  H           3.73326246959092      2.91855638976117      0.08087695246461
  H           4.11658728209944      2.54928898870136     -1.45926307731849
  C          -2.49680143893038     -0.26115903917261     -3.64324610230937
  H          -2.43733077183595      0.34777066004048     -4.54728398430197
  H          -2.88263070715996     -1.24637561317726     -3.91503650366303
  H          -3.33516955357782     -0.08979976384192     -1.66858647218602
  C          -3.45811187805929      0.37854081227870     -2.66027523916578
  C          -3.20130465495176      1.86704173303251     -2.51819592029376
  O          -2.67628393311740      2.58120185688016     -3.34828785648253
  O          -3.73613156254262      2.33448369406017     -1.37488149581284
  H          -3.58143337866977      3.29918251199703     -1.34624597549211
  N          -4.82829443613884      0.26829557087994     -3.18574293955173
  H          -5.05966355532580     -0.72187611067183     -3.24860731091525
  H          -5.47762348751877      0.65894070994410     -2.50327831858158
