43
Coordinates from ORCA-job 3_Cu4_Cys3 E -8719.639427875507
  Cu     -1.706403     -1.926631     -0.613829
  S       1.704374     -1.059550      2.965884
  S      -2.400968     -0.612017     -2.724155
  Cu     -0.164080     -2.082204      1.507198
  Cu     -0.301764      0.282166     -1.779094
  Cu      1.567027      0.093359      0.790849
  S       1.836688      1.382606     -1.278982
  C       2.583475     -1.116638      4.558468
  H       1.950982     -0.622470      5.304894
  H       2.682247     -2.168478      4.848260
  H       4.577594     -0.983505      3.736536
  C       3.961228     -0.456938      4.475353
  C       3.876824      0.999614      4.059139
  O       2.824680      1.559029      3.773189
  O       5.081099      1.622092      3.997434
  H       4.995959      2.556349      3.710866
  N       4.619361     -0.504767      5.782478
  H       4.698619     -1.473570      6.089326
  H       5.573655     -0.156230      5.696835
  C       3.009137      2.546083     -2.043237
  H       3.452106      3.146624     -1.240411
  H       3.811701      1.958607     -2.502437
  H       1.918007      2.807594     -3.890088
  C       2.333971      3.433139     -3.090901
  C       1.201312      4.254777     -2.504474
  O       0.842274      4.170381     -1.335847
  O       0.594590      5.070809     -3.403109
  H      -0.142424      5.576508     -2.999025
  N       3.307903      4.367028     -3.659504
  H       4.081622      3.845357     -4.069669
  H       2.877647      4.884002     -4.425734
  C      -3.622829     -0.428140     -4.060435
  H      -3.136538      0.107669     -4.883740
  H      -3.878745     -1.430904     -4.419705
  H      -5.355759     -0.263909     -2.779893
  C      -4.880469      0.304165     -3.588857
  C      -4.573436      1.694376     -3.064504
  O      -3.438179      2.148577     -2.983185
  O      -5.671138      2.381180     -2.658410
  H      -5.439663      3.268636     -2.310492
  N      -5.821956      0.450068     -4.700755
  H      -6.055454     -0.469660     -5.073040
  H      -6.696297      0.846596     -4.357559
43
Coordinates from ORCA-job 3_Cu4_Cys3 E -8719.660665280977
  Cu     -1.690276     -1.913751     -0.591891
  S       1.699428     -1.052170      2.950342
  S      -2.377082     -0.600305     -2.673252
  Cu     -0.150841     -2.071309      1.513317
  Cu     -0.302891      0.298333     -1.746088
  Cu      1.563860      0.107569      0.806931
  S       1.804404      1.393993     -1.238130
  C       2.597872     -1.096840      4.541381
  H       1.985094     -0.613360      5.305398
  H       2.702291     -2.149868      4.809355
  H       4.570564     -0.977210      3.708975
  C       3.982158     -0.463261      4.483014
  C       3.970504      1.016645      4.153239
  O       2.976786      1.681056      3.934057
  O       5.213732      1.532655      4.128593
  H       5.178833      2.483006      3.913784
  N       4.640288     -0.604326      5.789217
  H       4.683739     -1.590453      6.035117
  H       5.604447     -0.286749      5.719192
  C       2.955947      2.575493     -2.012800
  H       3.402860      3.192452     -1.229440
  H       3.752542      1.991494     -2.479545
  H       1.851568      2.774499     -3.839355
  C       2.283376      3.436700     -3.073941
  C       1.167523      4.313759     -2.538970
  O       0.797493      4.354132     -1.382231
  O       0.603720      5.054242     -3.511339
  H      -0.116802      5.597969     -3.143033
  N       3.279477      4.328027     -3.681790
  H       4.035379      3.767718     -4.069285
  H       2.858698      4.819156     -4.467300
  C      -3.592643     -0.394531     -4.020879
  H      -3.114429      0.135650     -4.848446
  H      -3.846929     -1.398215     -4.367174
  H      -5.321026     -0.232497     -2.762601
  C      -4.865126      0.325299     -3.592976
  C      -4.641902      1.753062     -3.130829
  O      -3.566356      2.317022     -3.074457
  O      -5.796913      2.349308     -2.779977
  H      -5.627857      3.263512     -2.487035
  N      -5.797594      0.384679     -4.727107
  H      -5.986034     -0.560375     -5.053015
  H      -6.689896      0.759574     -4.413386
43
Coordinates from ORCA-job 3_Cu4_Cys3 E -8719.678106731206
  Cu     -1.675422     -1.908831     -0.572574
  S       1.660847     -1.055614      2.915750
  S      -2.337197     -0.601214     -2.608884
  Cu     -0.154378     -2.068231      1.511205
  Cu     -0.304083      0.298712     -1.712203
  Cu      1.547290      0.104077      0.822664
  S       1.755745      1.371105     -1.183666
  C       2.583188     -1.068749      4.498316
  H       1.991681     -0.580752      5.272981
  H       2.703827     -2.118114      4.765774
  H       4.528145     -0.964221      3.635802
  C       3.960866     -0.447799      4.426853
  C       3.961975      1.029839      4.106264
  O       3.000585      1.733029      3.910101
  O       5.220995      1.483919      4.064807
  H       5.193840      2.434048      3.857899
  N       4.618414     -0.594072      5.738323
  H       4.650169     -1.582428      5.973147
  H       5.584543     -0.287913      5.664687
  C       2.895069      2.562785     -1.965022
  H       3.346674      3.189921     -1.195478
  H       3.684333      1.980215     -2.442713
  H       1.785237      2.731444     -3.774383
  C       2.233040      3.410952     -3.029788
  C       1.136804      4.322999     -2.523071
  O       0.753919      4.443356     -1.385005
  O       0.622253      5.018745     -3.544446
  H      -0.077243      5.595820     -3.193860
  N       3.253198      4.276863     -3.644697
  H       3.994299      3.687879     -4.016005
  H       2.845720      4.758517     -4.441454
  C      -3.531469     -0.360985     -3.974371
  H      -3.051769      0.179626     -4.792290
  H      -3.788695     -1.359038     -4.328779
  H      -5.266730     -0.223661     -2.746738
  C      -4.809435      0.342289     -3.573065
  C      -4.617254      1.768477     -3.107785
  O      -3.577896      2.376987     -3.027099
  O      -5.801487      2.299319     -2.778374
  H      -5.652440      3.213964     -2.484428
  N      -5.707015      0.398693     -4.741742
  H      -5.870484     -0.550002     -5.067895
  H      -6.611675      0.759828     -4.453122
43
Coordinates from ORCA-job 3_Cu4_Cys3 E -8719.700333854755
  Cu     -1.660568     -1.908061     -0.547735
  S       1.581365     -1.067496      2.856056
  S      -2.273204     -0.616531     -2.516640
  Cu     -0.177022     -2.068986      1.504257
  Cu     -0.303900      0.281975     -1.672059
  Cu      1.515331      0.082538      0.841512
  S       1.682980      1.308332     -1.105909
  C       2.537306     -1.022626      4.419839
  H       1.970661     -0.520262      5.202926
  H       2.677810     -2.065850      4.700183
  H       4.441800     -0.924555      3.490331
  C       3.910346     -0.408359      4.306847
  C       3.916087      1.070698      3.992042
  O       2.976985      1.810892      3.853945
  O       5.189910      1.478599      3.905920
  H       5.160301      2.433501      3.715764
  N       4.593190     -0.559722      5.608172
  H       4.619616     -1.551659      5.829677
  H       5.560099     -0.263425      5.510155
  C       2.816822      2.507033     -1.884026
  H       3.273286      3.135967     -1.119665
  H       3.598912      1.923089     -2.372242
  H       1.694032      2.681451     -3.675919
  C       2.172696      3.360328     -2.948462
  C       1.113760      4.320998     -2.452362
  O       0.739065      4.512739     -1.325053
  O       0.639428      4.996492     -3.508103
  H      -0.021035      5.620703     -3.159332
  N       3.228944      4.186572     -3.564296
  H       3.942281      3.558381     -3.926636
  H       2.840468      4.671355     -4.368336
  C      -3.428098     -0.327285     -3.908335
  H      -2.934871      0.224148     -4.710421
  H      -3.688633     -1.318637     -4.278310
  H      -5.173362     -0.204281     -2.708148
  C      -4.716994      0.362308     -3.534791
  C      -4.562098      1.793943     -3.076842
  O      -3.558703      2.452251     -2.998104
  O      -5.776764      2.271389     -2.772096
  H      -5.647340      3.195899     -2.495951
  N      -5.579948      0.399891     -4.733691
  H      -5.714939     -0.557512     -5.048218
  H      -6.498017      0.745556     -4.470306
43
Coordinates from ORCA-job 3_Cu4_Cys3 E -8719.710312727682
  Cu     -1.602446     -1.945503     -0.464004
  S       1.178013     -1.177540      2.565716
  S      -1.967838     -0.711277     -2.110765
  Cu     -0.315003     -2.131311      1.447129
  Cu     -0.298948      0.156841     -1.484518
  Cu      1.333602     -0.084619      0.933353
  S       1.352374      0.962907     -0.737337
  C       2.274242     -0.838880      3.997756
  H       1.789057     -0.271255      4.790895
  H       2.539730     -1.833770      4.361946
  H       3.964104     -0.693009      2.722773
  C       3.580207     -0.174929      3.621461
  C       3.432551      1.291582      3.255043
  O       2.482723      2.032243      3.339094
  O       4.658125      1.700063      2.796793
  H       4.498636      2.648202      2.602802
  N       4.451352     -0.213820      4.823649
  H       4.560624     -1.200489      5.053961
  H       5.378479      0.116901      4.553570
  C       2.516408      2.165701     -1.443844
  H       2.969394      2.770737     -0.658019
  H       3.285234      1.563015     -1.934648
  H       1.388389      2.464926     -3.219069
  C       1.992915      3.079809     -2.523877
  C       1.123351      4.230382     -2.038728
  O       0.845580      4.608231     -0.928719
  O       0.749074      4.907732     -3.158644
  H       0.286039      5.694138     -2.787282
  N       3.199722      3.713517     -3.112578
  H       3.777810      2.940569     -3.453994
  H       2.909791      4.236914     -3.936725
  C      -2.904686     -0.188403     -3.599477
  H      -2.321055      0.431905     -4.284324
  H      -3.152397     -1.132858     -4.089794
  H      -4.732457     -0.164347     -2.535957
  C      -4.250598      0.440671     -3.319321
  C      -4.212471      1.863648     -2.808248
  O      -3.298634      2.631589     -2.675028
  O      -5.496197      2.189200     -2.487707
  H      -5.406691      3.116690     -2.190611
  N      -4.957608      0.493564     -4.622812
  H      -5.003551     -0.469366     -4.952191
  H      -5.918962      0.781481     -4.452080
43
Coordinates from ORCA-job 3_Cu4_Cys3 E -8719.743306230228
  Cu     -1.612337     -1.898960     -0.487619
  S       1.253116     -1.145510      2.657339
  S      -2.044073     -0.690704     -2.225064
  Cu     -0.292927     -2.073804      1.460325
  Cu     -0.281664      0.214452     -1.561799
  Cu      1.399283     -0.014060      0.913942
  S       1.459407      1.081192     -0.838397
  C       2.314824     -0.898118      4.129573
  H       1.805102     -0.342440      4.918866
  H       2.540813     -1.907347      4.484518
  H       4.036405     -0.726013      2.885305
  C       3.641684     -0.242117      3.794568
  C       3.508412      1.237689      3.489800
  O       2.543576      1.955382      3.638387
  O       4.717961      1.706381      3.059901
  H       4.579004      2.666590      2.918063
  N       4.519232     -0.349057      4.978182
  H       4.626580     -1.343567      5.175130
  H       5.448157     -0.013954      4.721773
  C       2.630912      2.263548     -1.561247
  H       3.084240      2.871056     -0.774243
  H       3.407048      1.662060     -2.045322
  H       1.431199      2.530163     -3.307847
  C       2.049888      3.155844     -2.640547
  C       1.175610      4.276425     -2.106295
  O       0.982054      4.609144     -0.958401
  O       0.670056      4.967424     -3.163436
  H       0.194459      5.729544     -2.767548
  N       3.192259      3.813647     -3.309182
  H       3.780748      3.068136     -3.685283
  H       2.839914      4.326389     -4.116446
  C      -3.034116     -0.255847     -3.701986
  H      -2.463922      0.345116     -4.415750
  H      -3.280203     -1.216266     -4.164598
  H      -4.820582     -0.171675     -2.550100
  C      -4.366911      0.392899     -3.377187
  C      -4.259192      1.832353     -2.923586
  O      -3.288283      2.553747     -2.914100
  O      -5.493828      2.262285     -2.542704
  H      -5.371422      3.202958     -2.301621
  N      -5.169415      0.406461     -4.618099
  H      -5.263943     -0.562402     -4.919220
  H      -6.111141      0.722739     -4.392408
43
Coordinates from ORCA-job 3_Cu4_Cys3 E -8719.749995256079
  Cu     -1.684443     -1.806927     -0.407090
  S       1.241445     -1.088557      2.741637
  S      -2.095962     -0.670825     -2.215591
  Cu     -0.364340     -1.961773      1.552648
  Cu     -0.299797      0.251074     -1.552943
  Cu      1.397507      0.042072      0.953180
  S       1.474773      1.138304     -0.839636
  C       2.332111     -0.887783      4.193760
  H       1.842429     -0.307491      4.976017
  H       2.528722     -1.895945      4.563144
  H       4.020204     -0.745529      2.895703
  C       3.661754     -0.263615      3.819404
  C       3.533625      1.216961      3.536735
  O       2.588099      1.932932      3.775163
  O       4.681716      1.678695      2.984921
  H       4.554552      2.638260      2.853551
  N       4.588693     -0.392200      4.955209
  H       4.702006     -1.386618      5.144203
  H       5.507035     -0.059355      4.666126
  C       2.672051      2.268114     -1.596728
  H       3.156363      2.857138     -0.815511
  H       3.425518      1.656106     -2.101944
  H       1.361157      2.570434     -3.262468
  C       2.038582      3.173108     -2.634372
  C       1.227924      4.284766     -2.005845
  O       1.157242      4.569279     -0.832381
  O       0.576863      4.976214     -2.968705
  H       0.126754      5.715828     -2.518916
  N       3.120003      3.829216     -3.387333
  H       3.671492      3.095615     -3.830014
  H       2.707630      4.364670     -4.149466
  C      -3.055428     -0.311389     -3.726676
  H      -2.460814      0.271169     -4.432634
  H      -3.282354     -1.281537     -4.175197
  H      -4.851993     -0.147573     -2.588162
  C      -4.380472      0.366589     -3.437675
  C      -4.220003      1.819041     -3.054807
  O      -3.216767      2.492552     -3.122166
  O      -5.405214      2.312379     -2.626602
  H      -5.254922      3.256317     -2.428971
  N      -5.195004      0.349191     -4.664637
  H      -5.327717     -0.624477     -4.930566
  H      -6.123037      0.707354     -4.448727
43
Coordinates from ORCA-job 3_Cu4_Cys3 E -8719.752215174572
  Cu     -1.767008     -1.737344     -0.293932
  S       1.227082     -1.073542      2.820008
  S      -2.147937     -0.690378     -2.164116
  Cu     -0.440744     -1.874867      1.659750
  Cu     -0.343480      0.263234     -1.509944
  Cu      1.379022      0.072408      1.014207
  S       1.440904      1.180807     -0.799675
  C       2.381806     -0.927683      4.223604
  H       1.914687     -0.361531      5.028878
  H       2.597878     -1.938472      4.572948
  H       3.988017     -0.704629      2.828471
  C       3.674134     -0.268284      3.789041
  C       3.478058      1.216098      3.576146
  O       2.567183      1.886399      4.008468
  O       4.545716      1.749571      2.955035
  H       4.409288      2.715368      2.913960
  N       4.685027     -0.405971      4.845283
  H       4.854135     -1.399428      4.991557
  H       5.567509     -0.022834      4.510694
  C       2.661028      2.239803     -1.615493
  H       3.182745      2.817135     -0.850651
  H       3.385142      1.611945     -2.143561
  H       1.227686      2.560410     -3.176715
  C       1.965203      3.149731     -2.608155
  C       1.219873      4.257299     -1.899288
  O       1.336409      4.561547     -0.733632
  O       0.483735      4.967745     -2.773369
  H       0.097845      5.719129     -2.288069
  N       2.968355      3.799787     -3.460277
  H       3.472103      3.073759     -3.966298
  H       2.490898      4.351858     -4.170872
  C      -3.056448     -0.397627     -3.715740
  H      -2.413069      0.142014     -4.412226
  H      -3.296130     -1.373841     -4.142790
  H      -4.855933     -0.069155     -2.606615
  C      -4.343613      0.363747     -3.476736
  C      -4.067828      1.819125     -3.173401
  O      -3.023598      2.405644     -3.362585
  O      -5.190108      2.437240     -2.762021
  H      -4.982039      3.384430     -2.654919
  N      -5.162387      0.343112     -4.696835
  H      -5.374309     -0.626945     -4.920327
  H      -6.058854      0.784968     -4.504172
43
Coordinates from ORCA-job 3_Cu4_Cys3 E -8719.754885639280
  Cu     -1.830166     -1.683104     -0.200155
  S       1.206402     -1.069375      2.871832
  S      -2.183046     -0.700874     -2.102922
  Cu     -0.501071     -1.811402      1.740999
  Cu     -0.399805      0.294219     -1.448649
  Cu      1.342022      0.111701      1.081381
  S       1.365544      1.250166     -0.725517
  C       2.424135     -0.966746      4.225428
  H       1.980157     -0.429921      5.062879
  H       2.670893     -1.982672      4.537947
  H       3.956786     -0.653587      2.762128
  C       3.676910     -0.260125      3.751454
  C       3.427625      1.227924      3.607735
  O       2.544336      1.855956      4.150995
  O       4.356614      1.795518      2.824158
  H       4.186204      2.756965      2.800757
  N       4.742268     -0.398437      4.751570
  H       4.956162     -1.388646      4.854269
  H       5.593378      0.031788      4.393219
  C       2.622979      2.205983     -1.610679
  H       3.204414      2.758613     -0.871557
  H       3.290290      1.535264     -2.160100
  H       1.116018      2.586908     -3.084670
  C       1.919018      3.142659     -2.573116
  C       1.275168      4.296522     -1.832311
  O       1.504942      4.623311     -0.688648
  O       0.404920      4.942672     -2.623999
  H       0.044412      5.696866     -2.122530
  N       2.892501      3.733093     -3.497470
  H       3.322297      2.981513     -4.033935
  H       2.399908      4.311427     -4.175753
  C      -3.036658     -0.450481     -3.692415
  H      -2.351180      0.056935     -4.373102
  H      -3.284793     -1.430195     -4.105682
  H      -4.848969     -0.006873     -2.640503
  C      -4.296441      0.369607     -3.512018
  C      -3.952914      1.824436     -3.258227
  O      -2.886154      2.356059     -3.489031
  O      -5.013123      2.487245     -2.772089
  H      -4.764051      3.426209     -2.676656
  N      -5.088506      0.347505     -4.748452
  H      -5.347600     -0.616592     -4.946407
  H      -5.963842      0.843747     -4.594522
43
Coordinates from ORCA-job 3_Cu4_Cys3 E -8719.758915422615
  Cu     -1.837121     -1.707463     -0.165826
  S       1.209951     -1.132716      2.869424
  S      -2.193325     -0.730486     -2.056463
  Cu     -0.502361     -1.848541      1.751230
  Cu     -0.477168      0.341939     -1.372495
  Cu      1.285507      0.141706      1.149490
  S       1.225886      1.368954     -0.598213
  C       2.487984     -1.052176      4.171430
  H       2.052834     -0.591972      5.057640
  H       2.806722     -2.068322      4.409952
  H       3.943744     -0.562671      2.674772
  C       3.671993     -0.238004      3.691123
  C       3.317452      1.238294      3.632906
  O       2.455238      1.786359      4.287433
  O       4.113609      1.887760      2.770907
  H       3.881890      2.836566      2.798994
  N       4.775787     -0.344973      4.653940
  H       5.065719     -1.320056      4.699136
  H       5.581251      0.166286      4.295966
  C       2.539575      2.182831     -1.549165
  H       3.158791      2.733739     -0.839849
  H       3.156056      1.439667     -2.063429
  H       1.073381      2.592664     -3.054903
  C       1.903801      3.120807     -2.557791
  C       1.322072      4.345346     -1.872741
  O       1.607159      4.744178     -0.764316
  O       0.423696      4.947403     -2.666444
  H       0.093264      5.740612     -2.202443
  N       2.919931      3.616114     -3.492596
  H       3.305049      2.820246     -3.998776
  H       2.471296      4.201087     -4.195073
  C      -3.019294     -0.473480     -3.662884
  H      -2.308027      0.020737     -4.327106
  H      -3.280160     -1.447442     -4.080777
  H      -4.846719      0.016971     -2.654108
  C      -4.260689      0.381706     -3.508029
  C      -3.883052      1.827541     -3.237696
  O      -2.816873      2.343897     -3.496684
  O      -4.907662      2.491764     -2.684332
  H      -4.639333      3.424386     -2.574678
  N      -5.017398      0.395828     -4.767213
  H      -5.303625     -0.557446     -4.979787
  H      -5.878849      0.922140     -4.634888
43
Coordinates from ORCA-job 3_Cu4_Cys3 E -8719.763794298988
  Cu     -1.800104     -1.751172     -0.185143
  S       1.241935     -1.198619      2.838269
  S      -2.174421     -0.745657     -2.050000
  Cu     -0.460377     -1.912329      1.713027
  Cu     -0.543972      0.411550     -1.305773
  Cu      1.232597      0.184544      1.205866
  S       1.080662      1.523282     -0.461471
  C       2.559857     -1.125342      4.101860
  H       2.126903     -0.751420      5.028945
  H       2.950658     -2.131375      4.263050
  H       3.939228     -0.451579      2.603053
  C       3.670464     -0.204004      3.641562
  C       3.208926      1.244351      3.676646
  O       2.358818      1.695923      4.415445
  O       3.892183      1.987822      2.794880
  H       3.596668      2.915027      2.883305
  N       4.801795     -0.284358      4.574967
  H       5.162266     -1.236725      4.557498
  H       5.560295      0.303601      4.231943
  C       2.444429      2.162423     -1.474627
  H       3.104458      2.717832     -0.806565
  H       3.002781      1.342061     -1.935817
  H       1.011934      2.567125     -3.012740
  C       1.871027      3.073178     -2.542414
  C       1.362612      4.369833     -1.933124
  O       1.707577      4.837421     -0.869534
  O       0.454317      4.945629     -2.733619
  H       0.171290      5.782779     -2.317789
  N       2.919470      3.449737     -3.496011
  H       3.256153      2.603719     -3.953371
  H       2.511212      4.019989     -4.234376
  C      -2.986998     -0.460918     -3.659696
  H      -2.264971      0.040259     -4.307075
  H      -3.251160     -1.425790     -4.095815
  H      -4.819277      0.030940     -2.659746
  C      -4.220075      0.404646     -3.500293
  C      -3.824486      1.840753     -3.200099
  O      -2.769589      2.360688     -3.495506
  O      -4.820341      2.491066     -2.582523
  H      -4.545040      3.420002     -2.458398
  N      -4.962800      0.454189     -4.767243
  H      -5.261130     -0.490324     -5.001491
  H      -5.817789      0.991029     -4.634418
43
Coordinates from ORCA-job 3_Cu4_Cys3 E -8719.769099002817
  Cu     -1.726913     -1.799246     -0.251420
  S       1.291913     -1.252374      2.777896
  S      -2.128843     -0.740187     -2.076093
  Cu     -0.384705     -1.984346      1.630753
  Cu     -0.608534      0.500943     -1.242122
  Cu      1.171152      0.243336      1.253934
  S       0.916576      1.705273     -0.309738
  C       2.635995     -1.175392      4.015184
  H       2.203757     -0.894655      4.975020
  H       3.094847     -2.162054      4.098364
  H       3.943534     -0.319896      2.543792
  C       3.676121     -0.155838      3.599013
  C       3.124453      1.254818      3.733610
  O       2.283264      1.607897      4.533770
  O       3.721951      2.089782      2.871615
  H       3.372253      2.989165      3.025384
  N       4.825422     -0.222738      4.511500
  H       5.245230     -1.146921      4.427190
  H       5.539552      0.433321      4.197627
  C       2.318713      2.132733     -1.382238
  H       3.029466      2.688300     -0.768123
  H       2.801986      1.231047     -1.771808
  H       0.926492      2.524244     -2.960216
  C       1.816838      3.001139     -2.518612
  C       1.399287      4.369836     -2.003952
  O       1.803281      4.897047     -0.990276
  O       0.501028      4.935549     -2.822317
  H       0.280430      5.817346     -2.464304
  N       2.894972      3.234577     -3.484982
  H       3.172744      2.336131     -3.878036
  H       2.532361      3.777911     -4.266493
  C      -2.937473     -0.415979     -3.680753
  H      -2.216416      0.109775     -4.309547
  H      -3.192134     -1.370442     -4.144531
  H      -4.779582      0.030913     -2.677655
  C      -4.177486      0.435518     -3.501524
  C      -3.790378      1.863323     -3.153799
  O      -2.753686      2.408822     -3.466332
  O      -4.767225      2.470841     -2.466066
  H      -4.497665      3.396857     -2.309979
  N      -4.911236      0.521946     -4.771917
  H      -5.203071     -0.416217     -5.037953
  H      -5.770287      1.049680     -4.628225
43
Coordinates from ORCA-job 3_Cu4_Cys3 E -8719.772972340397
  Cu     -1.600133     -1.856285     -0.371777
  S       1.378943     -1.305556      2.674759
  S      -2.047650     -0.719410     -2.133744
  Cu     -0.252333     -2.073020      1.490190
  Cu     -0.658869      0.592021     -1.185380
  Cu      1.117486      0.296461      1.283186
  S       0.748916      1.886388     -0.150371
  C       2.740210     -1.212804      3.892792
  H       2.307850     -1.054713      4.880415
  H       3.284956     -2.158676      3.882659
  H       3.947262     -0.127997      2.487079
  C       3.680563     -0.074689      3.553779
  C       3.010477      1.265940      3.809714
  O       2.165808      1.479155      4.654483
  O       3.498263      2.213055      2.995273
  H       3.071097      3.061493      3.224553
  N       4.843067     -0.116514      4.451181
  H       5.339468     -0.990676      4.287018
  H       5.494244      0.622404      4.188583
  C       2.164041      2.072328     -1.277893
  H       2.939355      2.611771     -0.730217
  H       2.549272      1.093510     -1.582788
  H       0.810475      2.458750     -2.891170
  C       1.739768      2.888824     -2.482530
  C       1.448145      4.325608     -2.076446
  O       1.927083      4.898477     -1.121870
  O       0.572280      4.897657     -2.914235
  H       0.441172      5.821493     -2.623936
  N       2.834136      2.949483     -3.457085
  H       3.030954      2.001054     -3.775161
  H       2.519959      3.457578     -4.282316
  C      -2.872618     -0.339763     -3.717980
  H      -2.162796      0.218898     -4.331043
  H      -3.120390     -1.278799     -4.215877
  H      -4.714431      0.041151     -2.687302
  C      -4.121961      0.488320     -3.495910
  C      -3.747783      1.903691     -3.089306
  O      -2.740658      2.488008     -3.425855
  O      -4.704704      2.455928     -2.329927
  H      -4.446147      3.379302     -2.141309
  N      -4.863115      0.620136     -4.758380
  H      -5.146041     -0.309467     -5.061768
  H      -5.727636      1.131268     -4.588450
43
Coordinates from ORCA-job 3_Cu4_Cys3 E -8719.766604348879
  Cu     -1.594836     -1.894045     -0.377498
  S       1.370966     -1.287715      2.673521
  S      -2.023244     -0.746839     -2.160422
  Cu     -0.232414     -2.119980      1.473526
  Cu     -0.683303      0.615584     -1.163410
  Cu      1.084263      0.323138      1.293010
  S       0.696723      1.942942     -0.113884
  C       2.738636     -1.186362      3.886221
  H       2.318776     -1.034865      4.887851
  H       3.277987     -2.130596      3.858704
  H       3.945667     -0.121021      2.479365
  C       3.686769     -0.055903      3.546338
  C       3.018770      1.268814      3.788473
  O       2.174400      1.478743      4.665446
  O       3.556091      2.229199      2.992145
  H       3.130950      3.070954      3.239758
  N       4.859848     -0.091820      4.443018
  H       5.343727     -0.959977      4.277656
  H       5.516906      0.634417      4.175486
  C       2.147175      2.039033     -1.267307
  H       2.981965      2.562245     -0.739972
  H       2.482417      1.009645     -1.578558
  H       0.806903      2.448456     -2.920905
  C       1.745170      2.858926     -2.487058
  C       1.453689      4.297080     -2.082202
  O       1.968196      4.879137     -1.126766
  O       0.562086      4.862416     -2.948403
  H       0.439549      5.780121     -2.665993
  N       2.864917      2.893455     -3.434394
  H       3.062027      1.936459     -3.748188
  H       2.558162      3.402962     -4.272967
  C      -2.866953     -0.332159     -3.726247
  H      -2.165356      0.209393     -4.359465
  H      -3.133680     -1.272596     -4.206097
  H      -4.704507      0.056888     -2.671927
  C      -4.113312      0.510281     -3.489744
  C      -3.736896      1.934183     -3.079502
  O      -2.737356      2.560045     -3.504148
  O      -4.686626      2.467391     -2.271281
  H      -4.424317      3.407712     -2.109327
  N      -4.856321      0.643805     -4.752397
  H      -5.134205     -0.296047     -5.053337
  H      -5.724937      1.156137     -4.571807
43
Coordinates from ORCA-job 3_Cu4_Cys3 E -8719.774976890585
  Cu     -1.565677     -1.951227     -0.420745
  S       1.376409     -1.308178      2.644210
  S      -2.007763     -0.792022     -2.192626
  Cu     -0.200540     -2.169366      1.428872
  Cu     -0.691995      0.580157     -1.182969
  Cu      1.067422      0.301741      1.269023
  S       0.650907      1.929706     -0.117102
  C       2.737776     -1.187048      3.859668
  H       2.315678     -1.052195      4.855683
  H       3.300266     -2.122461      3.827855
  H       3.934328     -0.092653      2.460813
  C       3.660894     -0.032726      3.525318
  C       2.971117      1.292527      3.763063
  O       2.122013      1.499456      4.610463
  O       3.470863      2.256015      2.963069
  H       3.020785      3.090908      3.201193
  N       4.820543     -0.057871      4.429849
  H       5.322074     -0.930035      4.266170
  H       5.469197      0.682738      4.164781
  C       2.099510      2.046998     -1.245063
  H       2.907010      2.556768     -0.711534
  H       2.434266      1.043769     -1.539077
  H       0.810041      2.423980     -2.923609
  C       1.725523      2.848706     -2.478869
  C       1.422295      4.289190     -2.107228
  O       1.923968      4.899942     -1.186065
  O       0.575334      4.846714     -2.998361
  H       0.472257      5.785272     -2.749255
  N       2.864589      2.881167     -3.402881
  H       3.068995      1.924204     -3.690299
  H       2.580026      3.366310     -4.253499
  C      -2.875448     -0.352233     -3.736819
  H      -2.173501      0.174602     -4.385767
  H      -3.185197     -1.282736     -4.216563
  H      -4.677531      0.074638     -2.654698
  C      -4.085493      0.521425     -3.464803
  C      -3.644831      1.905395     -3.022287
  O      -2.653934      2.490948     -3.432033
  O      -4.514806      2.443225     -2.150910
  H      -4.197857      3.348723     -1.954509
  N      -4.837757      0.718088     -4.712902
  H      -5.155569     -0.195085     -5.031932
  H      -5.681713      1.252159     -4.510310
43
Coordinates from ORCA-job 3_Cu4_Cys3 E -8719.775857718094
  Cu     -1.546727     -2.008126     -0.455551
  S       1.373576     -1.317647      2.617501
  S      -1.992058     -0.849662     -2.227251
  Cu     -0.177623     -2.212132      1.392146
  Cu     -0.709684      0.540318     -1.205130
  Cu      1.040225      0.285562      1.241707
  S       0.600633      1.914215     -0.133092
  C       2.737950     -1.178385      3.827641
  H       2.318776     -1.060930      4.826254
  H       3.319696     -2.102326      3.786229
  H       3.918131     -0.052675      2.435760
  C       3.640822     -0.006111      3.500108
  C       2.929451      1.310146      3.748409
  O       2.095318      1.505529      4.604317
  O       3.432902      2.291263      2.979220
  H       2.986033      3.121917      3.236411
  N       4.798858     -0.023702      4.405108
  H       5.312509     -0.888805      4.236430
  H       5.437312      0.727673      4.143317
  C       2.054957      2.037114     -1.237014
  H       2.856716      2.528973     -0.685435
  H       2.382767      1.036265     -1.530573
  H       0.815138      2.417755     -2.943537
  C       1.716631      2.842507     -2.475616
  C       1.419258      4.284405     -2.110272
  O       1.882990      4.883256     -1.168205
  O       0.555300      4.836492     -2.978464
  H       0.441312      5.772261     -2.720485
  N       2.880708      2.874948     -3.368979
  H       3.089939      1.915716     -3.644269
  H       2.624653      3.355118     -4.230235
  C      -2.894657     -0.387997     -3.744412
  H      -2.196334      0.102596     -4.425543
  H      -3.262052     -1.308802     -4.202766
  H      -4.642561      0.114538     -2.613201
  C      -4.058318      0.534351     -3.440886
  C      -3.545877      1.896888     -3.016210
  O      -2.592750      2.463795     -3.500312
  O      -4.353261      2.468343     -2.109864
  H      -4.007665      3.366009     -1.938542
  N      -4.842595      0.751733     -4.665888
  H      -5.205631     -0.149716     -4.968472
  H      -5.660297      1.316965     -4.443039
43
Coordinates from ORCA-job 3_Cu4_Cys3 E -8719.777358758573
  Cu     -1.508985     -2.100723     -0.515401
  S       1.373165     -1.343184      2.574320
  S      -1.958606     -0.939901     -2.285406
  Cu     -0.132490     -2.287128      1.327942
  Cu     -0.738420      0.477838     -1.233803
  Cu      0.993877      0.256211      1.208050
  S       0.515264      1.887639     -0.146063
  C       2.743787     -1.175971      3.773555
  H       2.331100     -1.095860      4.778867
  H       3.361132     -2.075187      3.708371
  H       3.881989      0.017455      2.399033
  C       3.601719      0.033788      3.463576
  C       2.840285      1.319768      3.737029
  O       1.996092      1.469080      4.588158
  O       3.288875      2.325563      2.969108
  H       2.808742      3.134325      3.233004
  N       4.757799      0.041946      4.370572
  H       5.301242     -0.801282      4.190626
  H       5.369522      0.818573      4.119304
  C       1.981700      2.032482     -1.217161
  H       2.770714      2.520746     -0.643000
  H       2.320389      1.033108     -1.507127
  H       0.795474      2.389452     -2.959781
  C       1.674265      2.830882     -2.466204
  C       1.358163      4.272266     -2.118080
  O       1.816122      4.888654     -1.186438
  O       0.549624      4.827594     -3.030505
  H       0.455439      5.773003     -2.804454
  N       2.866403      2.871253     -3.324049
  H       3.096535      1.909690     -3.576861
  H       2.635820      3.335084     -4.201727
  C      -2.921486     -0.436486     -3.750604
  H      -2.237746     -0.006111     -4.485382
  H      -3.382380     -1.334655     -4.167704
  H      -4.564802      0.192513     -2.531310
  C      -3.998266      0.567268     -3.391972
  C      -3.362464      1.889228     -3.007476
  O      -2.431001      2.402760     -3.573481
  O      -3.999897      2.468591     -1.977552
  H      -3.569038      3.328287     -1.807728
  N      -4.832763      0.829139     -4.573871
  H      -5.273661     -0.047675     -4.846143
  H      -5.598761      1.449609     -4.314923
43
Coordinates from ORCA-job 3_Cu4_Cys3 E -8719.778745456950
  Cu     -1.486145     -2.184600     -0.557980
  S       1.367346     -1.363959      2.537756
  S      -1.927527     -1.029123     -2.335380
  Cu     -0.097928     -2.354072      1.277473
  Cu     -0.771215      0.415086     -1.255500
  Cu      0.941653      0.228650      1.179232
  S       0.429704      1.859433     -0.159464
  C       2.750714     -1.170658      3.717805
  H       2.351795     -1.128980      4.731506
  H       3.400918     -2.043699      3.623605
  H       3.830146      0.094209      2.357538
  C       3.560309      0.075840      3.424522
  C       2.754756      1.325974      3.736020
  O       1.909913      1.422403      4.597287
  O       3.146157      2.359501      2.971371
  H       2.637709      3.144682      3.252273
  N       4.724478      0.108165      4.321666
  H       5.296028     -0.710915      4.121339
  H       5.305574      0.910617      4.079912
  C       1.912472      2.018709     -1.204520
  H       2.694601      2.501277     -0.612070
  H       2.259670      1.019391     -1.497425
  H       0.764003      2.372631     -2.971235
  C       1.628825      2.820019     -2.457565
  C       1.304957      4.261278     -2.116525
  O       1.752495      4.878640     -1.176768
  O       0.521714      4.819573     -3.050625
  H       0.431902      5.767183     -2.835504
  N       2.840362      2.862887     -3.289063
  H       3.083068      1.900104     -3.526752
  H       2.627174      3.316368     -4.176896
  C      -2.948384     -0.483286     -3.744388
  H      -2.288201     -0.116297     -4.533135
  H      -3.498398     -1.353370     -4.109906
  H      -4.469083      0.280519     -2.441626
  C      -3.927741      0.602054     -3.340342
  C      -3.166689      1.874866     -3.017759
  O      -2.268463      2.334923     -3.685244
  O      -3.634705      2.469681     -1.905101
  H      -3.119900      3.288806     -1.763796
  N      -4.808778      0.907372     -4.476334
  H      -5.328668      0.061439     -4.704881
  H      -5.512145      1.586317     -4.186207
43
Coordinates from ORCA-job 3_Cu4_Cys3 E -8719.780232920097
  Cu     -1.472121     -2.287992     -0.611381
  S       1.334816     -1.381753      2.492979
  S      -1.870527     -1.150399     -2.415042
  Cu     -0.070149     -2.436397      1.213562
  Cu     -0.811340      0.327879     -1.290197
  Cu      0.856440      0.192443      1.133068
  S       0.307077      1.823512     -0.183926
  C       2.742228     -1.154321      3.636972
  H       2.370210     -1.157015      4.662208
  H       3.428255     -1.994143      3.502846
  H       3.735338      0.192990      2.289008
  C       3.490875      0.133492      3.360253
  C       2.641338      1.337756      3.723781
  O       1.819570      1.374959      4.618059
  O       2.981959      2.410188      2.984113
  H       2.457259      3.169475      3.304267
  N       4.674744      0.195648      4.232377
  H       5.276299     -0.592917      4.000671
  H       5.215693      1.027461      3.997720
  C       1.823597      1.995149     -1.186890
  H       2.593252      2.473052     -0.569865
  H       2.183920      0.995825     -1.479170
  H       0.737698      2.348183     -2.993743
  C       1.579111      2.801912     -2.446490
  C       1.237257      4.241154     -2.113221
  O       1.653433      4.851898     -1.148901
  O       0.493857      4.806986     -3.079813
  H       0.396377      5.753982     -2.865306
  N       2.821090      2.851666     -3.232757
  H       3.085861      1.889492     -3.449269
  H       2.633156      3.291202     -4.133688
  C      -2.973656     -0.527371     -3.727891
  H      -2.364750     -0.226518     -4.582681
  H      -3.626463     -1.351408     -4.025221
  H      -4.318814      0.378441     -2.317788
  C      -3.824158      0.644881     -3.262284
  C      -2.926530      1.846165     -3.023183
  O      -2.105494      2.264684     -3.821777
  O      -3.168100      2.427420     -1.830125
  H      -2.554423      3.185525     -1.735328
  N      -4.761498      1.011060     -4.330795
  H      -5.370802      0.211159     -4.497840
  H      -5.377417      1.754227     -3.999997
43
Coordinates from ORCA-job 3_Cu4_Cys3 E -8719.781286126814
  Cu     -1.481270     -2.343497     -0.637270
  S       1.287095     -1.384431      2.471300
  S      -1.795611     -1.242295     -2.487029
  Cu     -0.064274     -2.489069      1.172757
  Cu     -0.835907      0.268210     -1.311007
  Cu      0.771262      0.171427      1.104054
  S       0.219435      1.805122     -0.201639
  C       2.745257     -1.133135      3.543249
  H       2.429886     -1.191344      4.585982
  H       3.459918     -1.934641      3.340114
  H       3.605839      0.310336      2.204097
  C       3.420532      0.197580      3.283108
  C       2.540329      1.344185      3.739522
  O       1.749530      1.298352      4.665217
  O       2.759944      2.448922      2.998335
  H       2.201745      3.163759      3.362101
  N       4.645011      0.283313      4.096110
  H       5.267372     -0.468550      3.804561
  H       5.136616      1.146186      3.865698
  C       1.775561      1.959856     -1.158477
  H       2.532594      2.436033     -0.522581
  H       2.137033      0.953882     -1.433130
  H       0.769690      2.307604     -3.015021
  C       1.586274      2.762841     -2.431652
  C       1.233213      4.204000     -2.114369
  O       1.597187      4.802540     -1.118342
  O       0.511600      4.773255     -3.098469
  H       0.391507      5.715678     -2.869966
  N       2.862093      2.807427     -3.162390
  H       3.143479      1.843937     -3.350105
  H       2.707503      3.228942     -4.078385
  C      -2.962332     -0.526817     -3.698837
  H      -2.403808     -0.245801     -4.593687
  H      -3.674402     -1.313862     -3.959492
  H      -4.183194      0.436003     -2.206234
  C      -3.738544      0.680709     -3.182503
  C      -2.788840      1.851921     -3.014920
  O      -2.057174      2.266322     -3.904965
  O      -2.892794      2.427539     -1.798758
  H      -2.234434      3.154309     -1.755486
  N      -4.729242      1.062782     -4.193458
  H      -5.372761      0.280257     -4.306737
  H      -5.298446      1.829849     -3.833984
43
Coordinates from ORCA-job 3_Cu4_Cys3 E -8719.782595169771
  Cu     -1.515459     -2.363875     -0.636607
  S       1.202113     -1.377162      2.493087
  S      -1.732890     -1.312201     -2.535651
  Cu     -0.088378     -2.518172      1.159756
  Cu     -0.831012      0.220312     -1.328074
  Cu      0.696169      0.155380      1.089391
  S       0.166037      1.794814     -0.214611
  C       2.718928     -1.110140      3.476876
  H       2.464346     -1.185576      4.535072
  H       3.432434     -1.898237      3.221820
  H       3.485408      0.364849      2.117649
  C       3.359688      0.234383      3.203815
  C       2.489186      1.358377      3.722386
  O       1.768844      1.287780      4.704574
  O       2.681142      2.492282      3.018071
  H       2.144788      3.191188      3.442069
  N       4.627231      0.328082      3.947599
  H       5.241137     -0.412917      3.611750
  H       5.095001      1.199268      3.699286
  C       1.762878      1.932951     -1.121839
  H       2.501645      2.413798     -0.468474
  H       2.125859      0.922863     -1.377648
  H       0.834763      2.276704     -3.024459
  C       1.622527      2.735232     -2.403998
  C       1.238110      4.172155     -2.099085
  O       1.547336      4.766431     -1.081855
  O       0.546802      4.739682     -3.107894
  H       0.393704      5.674667     -2.864258
  N       2.928561      2.791437     -3.076988
  H       3.235308      1.831873     -3.242743
  H       2.802882      3.201143     -4.002775
  C      -2.930886     -0.519461     -3.674520
  H      -2.395217     -0.229231     -4.580477
  H      -3.665169     -1.286421     -3.936347
  H      -4.117034      0.446925     -2.148159
  C      -3.694092      0.689721     -3.135788
  C      -2.757592      1.872086     -2.998864
  O      -2.046454      2.272586     -3.914893
  O      -2.851001      2.473060     -1.796587
  H      -2.176196      3.186729     -1.772513
  N      -4.711168      1.052226     -4.126721
  H      -5.350875      0.263409     -4.212556
  H      -5.274934      1.820638     -3.761504
43
Coordinates from ORCA-job 3_Cu4_Cys3 E -8719.784958278644
  Cu     -1.549456     -2.342578     -0.595011
  S       1.135798     -1.364017      2.557867
  S      -1.704981     -1.325985     -2.522399
  Cu     -0.117794     -2.514996      1.192928
  Cu     -0.790920      0.203885     -1.309562
  Cu      0.674476      0.150093      1.109921
  S       0.196411      1.795657     -0.207155
  C       2.709598     -1.101565      3.450747
  H       2.514042     -1.184787      4.520156
  H       3.409620     -1.886551      3.149871
  H       3.396603      0.379998      2.059110
  C       3.328708      0.247660      3.151711
  C       2.482510      1.369005      3.715436
  O       1.824156      1.298123      4.732969
  O       2.644073      2.510919      3.023675
  H       2.128104      3.201262      3.485389
  N       4.633871      0.338453      3.823592
  H       5.225810     -0.404135      3.450749
  H       5.088317      1.209467      3.549042
  C       1.808442      1.908124     -1.088500
  H       2.536231      2.387371     -0.428606
  H       2.160586      0.899383     -1.337076
  H       0.897274      2.262524     -2.997667
  C       1.678379      2.715461     -2.366241
  C       1.271556      4.142435     -2.053110
  O       1.555771      4.737896     -1.036779
  O       0.572384      4.695997     -3.059060
  H       0.389363      5.621111     -2.803190
  N       2.989874      2.789729     -3.023556
  H       3.311499      1.835705     -3.190822
  H       2.868197      3.202921     -3.947721
  C      -2.907155     -0.515254     -3.650100
  H      -2.364702     -0.225286     -4.552769
  H      -3.641249     -1.280249     -3.922339
  H      -4.117088      0.457175     -2.147939
  C      -3.691558      0.687664     -3.136530
  C      -2.805823      1.908702     -3.014324
  O      -2.065562      2.292439     -3.899991
  O      -3.003635      2.578512     -1.871120
  H      -2.356805      3.314438     -1.852454
  N      -4.713073      0.997556     -4.144561
  H      -5.332598      0.191802     -4.212475
  H      -5.294785      1.763574     -3.804796
43
Coordinates from ORCA-job 3_Cu4_Cys3 E -8719.786312064920
  Cu     -1.563506     -2.382535     -0.618909
  S       1.052696     -1.371011      2.576792
  S      -1.674589     -1.414190     -2.581788
  Cu     -0.139023     -2.548200      1.172806
  Cu     -0.769508      0.127098     -1.356422
  Cu      0.624993      0.113994      1.077075
  S       0.171619      1.753133     -0.258368
  C       2.668078     -1.076499      3.385099
  H       2.530374     -1.182372      4.461020
  H       3.375454     -1.835301      3.036517
  H       3.247928      0.443581      1.983769
  C       3.231558      0.295382      3.077522
  C       2.375978      1.385374      3.695216
  O       1.762743      1.283645      4.729752
  O       2.470278      2.540652      3.021705
  H       1.951722      3.204245      3.517406
  N       4.560965      0.410771      3.691793
  H       5.153242     -0.311712      3.281243
  H       4.979592      1.297087      3.407693
  C       1.792129      1.881793     -1.103815
  H       2.498987      2.352315     -0.419686
  H       2.146562      0.879769     -1.357461
  H       0.908816      2.269592     -3.016033
  C       1.683087      2.708330     -2.368875
  C       1.276164      4.131388     -2.040897
  O       1.552202      4.724067     -1.028358
  O       0.593778      4.693670     -3.046398
  H       0.417440      5.619133     -2.788481
  N       3.002016      2.791723     -3.009011
  H       3.324327      1.839364     -3.184370
  H       2.897448      3.218561     -3.928583
  C      -2.896631     -0.539326     -3.632158
  H      -2.384405     -0.253748     -4.554475
  H      -3.678484     -1.264259     -3.881830
  H      -3.970861      0.447779     -2.046810
  C      -3.592243      0.679138     -3.052664
  C      -2.650986      1.859669     -2.953167
  O      -1.914860      2.213769     -3.837687
  O      -2.777351      2.523527     -1.800687
  H      -2.112007      3.238668     -1.802952
  N      -4.655507      1.061345     -3.995434
  H      -5.319805      0.290716     -4.042118
  H      -5.175938      1.849511     -3.610657
43
Coordinates from ORCA-job 3_Cu4_Cys3 E -8719.789732800637
  Cu     -1.632350     -2.325975     -0.565227
  S       0.932693     -1.347357      2.681649
  S      -1.655724     -1.416136     -2.561241
  Cu     -0.213835     -2.522613      1.224913
  Cu     -0.694574      0.104127     -1.335286
  Cu      0.606841      0.099356      1.097145
  S       0.258453      1.747612     -0.263239
  C       2.630200     -1.052595      3.307866
  H       2.605884     -1.188304      4.388904
  H       3.308827     -1.790657      2.868885
  H       3.045969      0.510646      1.895179
  C       3.135986      0.339165      2.983214
  C       2.316720      1.394119      3.703342
  O       1.788935      1.249213      4.779635
  O       2.313772      2.565810      3.050626
  H       1.814929      3.197853      3.604659
  N       4.514359      0.470768      3.473822
  H       5.078393     -0.229704      2.990774
  H       4.888069      1.372316      3.174545
  C       1.893073      1.849952     -1.091134
  H       2.592313      2.318861     -0.397133
  H       2.238097      0.843850     -1.341194
  H       1.007767      2.281110     -2.996714
  C       1.793831      2.693127     -2.347414
  C       1.398335      4.117315     -2.000096
  O       1.677535      4.704427     -0.985805
  O       0.708060      4.685025     -3.001058
  H       0.525145      5.607421     -2.732961
  N       3.108312      2.769980     -2.994344
  H       3.421254      1.818458     -3.187378
  H       3.003835      3.214293     -3.905512
  C      -2.864524     -0.551099     -3.627087
  H      -2.321373     -0.218563     -4.515450
  H      -3.617234     -1.284785     -3.933601
  H      -3.981655      0.353990     -2.024256
  C      -3.595588      0.623619     -3.018462
  C      -2.694154      1.830678     -2.862012
  O      -1.877800      2.187640     -3.674093
  O      -2.977085      2.533500     -1.761091
  H      -2.365662      3.293657     -1.739985
  N      -4.652026      1.031719     -3.963615
  H      -5.312854      0.260757     -4.043466
  H      -5.176677      1.807056     -3.558992
43
Coordinates from ORCA-job 3_Cu4_Cys3 E -8719.791811623378
  Cu     -1.645743     -2.299916     -0.609006
  S       0.832644     -1.322568      2.703855
  S      -1.614066     -1.419834     -2.623564
  Cu     -0.245732     -2.508882      1.193484
  Cu     -0.619109      0.069509     -1.370853
  Cu      0.568275      0.087934      1.057951
  S       0.326083      1.739520     -0.322894
  C       2.571423     -1.032925      3.225067
  H       2.611464     -1.215276      4.299604
  H       3.236623     -1.741717      2.721327
  H       2.919083      0.589005      1.856000
  C       3.044567      0.380262      2.934566
  C       2.229844      1.395589      3.713576
  O       1.721408      1.202259      4.797268
  O       2.184341      2.584629      3.084438
  H       1.680205      3.194736      3.657769
  N       4.433965      0.522655      3.391084
  H       4.997441     -0.150550      2.869819
  H       4.783399      1.440691      3.114385
  C       1.981311      1.830740     -1.111456
  H       2.662679      2.303559     -0.397647
  H       2.335007      0.820674     -1.349423
  H       1.132839      2.267265     -3.033171
  C       1.904523      2.676460     -2.365682
  C       1.488420      4.093785     -2.009498
  O       1.753533      4.678926     -0.983459
  O       0.813042      4.661268     -3.028243
  H       0.615603      5.582071     -2.766710
  N       3.230495      2.768204     -2.985749
  H       3.555450      1.821283     -3.180930
  H       3.143335      3.220752     -3.894614
  C      -2.846188     -0.545935     -3.649010
  H      -2.319217     -0.151340     -4.521017
  H      -3.582712     -1.280371     -3.987427
  H      -3.878428      0.249005     -1.934620
  C      -3.573685      0.573883     -2.942413
  C      -2.708827      1.813561     -2.795258
  O      -1.902872      2.208036     -3.616357
  O      -3.052573      2.524981     -1.708744
  H      -2.509209      3.337507     -1.711511
  N      -4.709497      1.004792     -3.781261
  H      -5.363237      0.225434     -3.844504
  H      -5.211437      1.749975     -3.297857
43
Coordinates from ORCA-job 3_Cu4_Cys3 E -8719.792588169961
  Cu     -1.634375     -2.302860     -0.717660
  S       0.690836     -1.291698      2.699293
  S      -1.530901     -1.451073     -2.751825
  Cu     -0.292214     -2.494561      1.127863
  Cu     -0.569401      0.024251     -1.432988
  Cu      0.469901      0.085544      0.995530
  S       0.311909      1.741136     -0.396474
  C       2.455421     -0.992655      3.134655
  H       2.549500     -1.183844      4.205382
  H       3.097375     -1.698815      2.597185
  H       2.785585      0.641175      1.771533
  C       2.930739      0.418716      2.844621
  C       2.141065      1.426526      3.657664
  O       1.661809      1.217144      4.754638
  O       2.087987      2.626912      3.049972
  H       1.608753      3.230299      3.652261
  N       4.332274      0.550061      3.266825
  H       4.879131     -0.123659      2.729101
  H       4.680616      1.466553      2.984957
  C       2.002759      1.841650     -1.107020
  H       2.648401      2.312843     -0.356812
  H       2.369429      0.828084     -1.323359
  H       1.274824      2.264916     -3.082279
  C       2.004791      2.680639     -2.371735
  C       1.580091      4.108422     -2.062244
  O       1.789088      4.705457     -1.028308
  O       0.933246      4.656876     -3.112132
  H       0.720777      5.581164     -2.873513
  N       3.367583      2.760095     -2.907041
  H       3.700095      1.808917     -3.067570
  H       3.343063      3.201716     -3.825263
  C      -2.803918     -0.519519     -3.675288
  H      -2.314843     -0.038308     -4.525414
  H      -3.533943     -1.239431     -4.054262
  H      -3.744575      0.104342     -1.838931
  C      -3.524063      0.516067     -2.838872
  C      -2.700486      1.779029     -2.663020
  O      -1.893861      2.215184     -3.469064
  O      -3.049349      2.431686     -1.536059
  H      -2.530334      3.261450     -1.507339
  N      -4.733675      0.969212     -3.552380
  H      -5.368251      0.174064     -3.623884
  H      -5.218384      1.655926     -2.973430
43
Coordinates from ORCA-job 3_Cu4_Cys3 E -8719.792702447019
  Cu     -1.587864     -2.236410     -0.889326
  S       0.547414     -1.152479      2.631311
  S      -1.429062     -1.384990     -2.930284
  Cu     -0.356215     -2.385693      1.042511
  Cu     -0.515271      0.050638     -1.521816
  Cu      0.365342      0.169994      0.876260
  S       0.304947      1.825030     -0.526928
  C       2.294578     -1.014038      3.208150
  H       2.289063     -1.209417      4.284084
  H       2.907661     -1.785175      2.728089
  H       2.964052      0.542207      1.875008
  C       2.953836      0.329078      2.957544
  C       2.208175      1.447954      3.658933
  O       1.594871      1.342401      4.705008
  O       2.372442      2.614880      3.001151
  H       1.925510      3.312992      3.517654
  N       4.304734      0.309777      3.536823
  H       4.827871     -0.439542      3.083584
  H       4.788061      1.170042      3.279781
  C       2.004143      1.965962     -1.175216
  H       2.614090      2.454939     -0.402936
  H       2.417137      0.959416     -1.363406
  H       1.332222      2.297034     -3.179512
  C       2.021084      2.766557     -2.459771
  C       1.547348      4.186161     -2.199204
  O       1.749333      4.824430     -1.183244
  O       0.912847      4.686037     -3.280759
  H       0.690322      5.617753     -3.100750
  N       3.399857      2.874460     -2.949809
  H       3.760846      1.926818     -3.070658
  H       3.403685      3.290597     -3.880551
  C      -2.778415     -0.490153     -3.780790
  H      -2.369782      0.078828     -4.618615
  H      -3.477550     -1.232273     -4.170780
  H      -3.525790     -0.061174     -1.807774
  C      -3.479780      0.430027     -2.797081
  C      -2.743713      1.754419     -2.649608
  O      -2.015712      2.284072     -3.481295
  O      -3.102396      2.350801     -1.484458
  H      -2.686749      3.238394     -1.460011
  N      -4.810578      0.826660     -3.293478
  H      -5.391015     -0.012301     -3.333993
  H      -5.257108      1.424923     -2.596524
43
Coordinates from ORCA-job 3_Cu4_Cys3 E -8719.793872676706
  Cu     -1.525099     -2.261665     -0.975437
  S       0.455931     -1.164395      2.644675
  S      -1.326384     -1.394019     -3.014642
  Cu     -0.352662     -2.395355      0.992775
  Cu     -0.484731      0.025025     -1.533272
  Cu      0.300223      0.148617      0.859108
  S       0.261043      1.822290     -0.524843
  C       2.225628     -0.983126      3.104951
  H       2.305333     -1.186038      4.176025
  H       2.815128     -1.735696      2.568609
  H       2.760964      0.596321      1.743503
  C       2.831975      0.374929      2.821724
  C       2.111119      1.467206      3.585390
  O       1.598331      1.337414      4.678069
  O       2.184007      2.644076      2.936179
  H       1.761846      3.318148      3.503378
  N       4.221778      0.381702      3.301381
  H       4.725956     -0.355829      2.808886
  H       4.666239      1.252046      3.009486
  C       1.987199      1.958769     -1.099559
  H       2.567774      2.455137     -0.313581
  H       2.406520      0.952845     -1.257570
  H       1.423648      2.231720     -3.143147
  C       2.069696      2.727785     -2.401786
  C       1.582221      4.151645     -2.212828
  O       1.754860      4.824216     -1.218570
  O       1.018769      4.627441     -3.337835
  H       0.804214      5.567204     -3.193806
  N       3.474796      2.821887     -2.816576
  H       3.842251      1.871293     -2.882827
  H       3.527888      3.203644     -3.760512
  C      -2.718405     -0.441222     -3.738700
  H      -2.356397      0.165623     -4.571275
  H      -3.436276     -1.167205     -4.128370
  H      -3.393415     -0.085014     -1.725107
  C      -3.402570      0.436286     -2.699186
  C      -2.698819      1.773739     -2.547811
  O      -2.058326      2.351328     -3.407190
  O      -3.034210      2.341361     -1.367164
  H      -2.635995      3.235301     -1.340002
  N      -4.765652      0.786163     -3.137106
  H      -5.309694     -0.076256     -3.180235
  H      -5.212230      1.344295     -2.407889
43
Coordinates from ORCA-job 3_Cu4_Cys3 E -8719.795958973360
  Cu     -1.470909     -2.199609     -0.980932
  S       0.455567     -1.115880      2.694023
  S      -1.278918     -1.299771     -3.002800
  Cu     -0.338822     -2.326036      1.016811
  Cu     -0.444312      0.086073     -1.494492
  Cu      0.312054      0.195248      0.901163
  S       0.299424      1.875060     -0.476843
  C       2.229683     -0.973594      3.098707
  H       2.352583     -1.185997      4.162255
  H       2.779604     -1.728186      2.524788
  H       2.688467      0.602834      1.712176
  C       2.824122      0.382514      2.785503
  C       2.154140      1.480256      3.583237
  O       1.715719      1.360531      4.704161
  O       2.184256      2.652540      2.926726
  H       1.800309      3.330135      3.515904
  N       4.239321      0.380481      3.186711
  H       4.708865     -0.363097      2.668926
  H       4.672050      1.247072      2.864969
  C       2.036611      1.964912     -1.029198
  H       2.623266      2.469127     -0.258360
  H       2.442372      0.954845     -1.164341
  H       1.488823      2.185364     -3.080680
  C       2.133751      2.697563     -2.349982
  C       1.652916      4.124654     -2.196297
  O       1.806697      4.804584     -1.208210
  O       1.033142      4.560555     -3.301295
  H       0.791000      5.494138     -3.156452
  N       3.542732      2.768293     -2.758352
  H       3.901246      1.813442     -2.800198
  H       3.597648      3.122973     -3.712741
  C      -2.706479     -0.396629     -3.728468
  H      -2.358608      0.229887     -4.552539
  H      -3.383484     -1.154145     -4.135493
  H      -3.482000     -0.070403     -1.747932
  C      -3.479844      0.446779     -2.723110
  C      -2.857219      1.819127     -2.549295
  O      -2.197260      2.410842     -3.369501
  O      -3.193686      2.346912     -1.359460
  H      -2.796930      3.237149     -1.307706
  N      -4.833892      0.697229     -3.243532
  H      -5.309009     -0.202093     -3.314748
  H      -5.360527      1.223953     -2.545793
43
Coordinates from ORCA-job 3_Cu4_Cys3 E -8719.797025185258
  Cu     -1.442317     -2.145380     -1.032158
  S       0.409227     -1.051231      2.689036
  S      -1.230088     -1.246089     -3.053913
  Cu     -0.365632     -2.255705      1.001840
  Cu     -0.436051      0.128737     -1.510475
  Cu      0.274649      0.248746      0.886338
  S       0.281492      1.928176     -0.494324
  C       2.179361     -0.976081      3.124738
  H       2.279907     -1.175863      4.192844
  H       2.706508     -1.761261      2.570870
  H       2.718663      0.551941      1.713722
  C       2.830930      0.350353      2.793728
  C       2.190107      1.488557      3.557787
  O       1.728099      1.407854      4.673868
  O       2.262319      2.642924      2.872085
  H       1.891778      3.347299      3.438355
  N       4.239134      0.306494      3.218254
  H       4.687665     -0.466774      2.725748
  H       4.709442      1.147995      2.882554
  C       2.028688      2.012739     -1.021055
  H       2.604099      2.537789     -0.254259
  H       2.442683      1.000864     -1.127405
  H       1.518624      2.178934     -3.087799
  C       2.144824      2.716134     -2.358565
  C       1.645762      4.142382     -2.248696
  O       1.794132      4.852408     -1.279385
  O       1.039822      4.547531     -3.373475
  H       0.791874      5.484468     -3.255698
  N       3.560218      2.789441     -2.746335
  H       3.926876      1.836751     -2.761807
  H       3.625485      3.122154     -3.708362
  C      -2.687004     -0.371594     -3.746779
  H      -2.361102      0.293283     -4.549584
  H      -3.341213     -1.136295     -4.176230
  H      -3.477249     -0.145004     -1.758284
  C      -3.481282      0.412988     -2.711349
  C      -2.877229      1.783215     -2.470355
  O      -2.217414      2.418797     -3.260659
  O      -3.250812      2.264255     -1.271594
  H      -2.869363      3.158776     -1.179516
  N      -4.833298      0.664978     -3.234046
  H      -5.291798     -0.237862     -3.352859
  H      -5.376045      1.151808     -2.519490
43
Coordinates from ORCA-job 3_Cu4_Cys3 E -8719.798340876641
  Cu     -1.411933     -2.045994     -1.062577
  S       0.342242     -0.950050      2.731672
  S      -1.173559     -1.162996     -3.085717
  Cu     -0.408792     -2.130465      1.019861
  Cu     -0.431833      0.196612     -1.500525
  Cu      0.221722      0.331698      0.908090
  S       0.252658      2.006034     -0.484470
  C       2.119081     -0.983943      3.159561
  H       2.217184     -1.168774      4.230338
  H       2.593498     -1.810735      2.618904
  H       2.737949      0.473547      1.707311
  C       2.848424      0.294536      2.792083
  C       2.271637      1.482480      3.534345
  O       1.813782      1.448957      4.656986
  O       2.396361      2.617882      2.823398
  H       2.063352      3.352044      3.375621
  N       4.255241      0.186861      3.209845
  H       4.654700     -0.624526      2.736192
  H       4.769921      0.990066      2.846393
  C       2.010872      2.076796     -0.979691
  H       2.571350      2.629851     -0.218697
  H       2.431124      1.061669     -1.048371
  H       1.550455      2.178465     -3.063693
  C       2.148678      2.747585     -2.335237
  C       1.611290      4.165312     -2.274926
  O       1.747666      4.915914     -1.332024
  O       1.019886      4.525134     -3.424744
  H       0.753437      5.461467     -3.341778
  N       3.569791      2.842388     -2.697574
  H       3.955624      1.896983     -2.685858
  H       3.644862      3.153727     -3.666247
  C      -2.676062     -0.381330     -3.769059
  H      -2.391370      0.295768     -4.577861
  H      -3.298665     -1.178553     -4.183176
  H      -3.439460     -0.183547     -1.769412
  C      -3.479758      0.372543     -2.723952
  C      -2.904376      1.756638     -2.483882
  O      -2.288118      2.421730     -3.294307
  O      -3.268385      2.223047     -1.274414
  H      -2.912299      3.130560     -1.186213
  N      -4.843023      0.591777     -3.228822
  H      -5.278626     -0.321796     -3.350860
  H      -5.392057      1.064273     -2.509199
43
Coordinates from ORCA-job 3_Cu4_Cys3 E -8719.799236386838
  Cu     -1.351370     -1.930566     -1.123324
  S       0.245287     -0.820800      2.776916
  S      -1.085685     -1.066281     -3.149555
  Cu     -0.472535     -1.965480      1.028444
  Cu     -0.420594      0.278675     -1.511362
  Cu      0.138522      0.442067      0.928541
  S       0.200764      2.103323     -0.486233
  C       2.031843     -0.963993      3.147288
  H       2.156023     -1.136658      4.217054
  H       2.436018     -1.826767      2.606079
  H       2.680882      0.425719      1.645275
  C       2.822686      0.263767      2.729593
  C       2.332856      1.493030      3.470418
  O       1.912310      1.497985      4.608732
  O       2.476687      2.610874      2.736377
  H       2.188717      3.364369      3.288077
  N       4.234567      0.087051      3.100054
  H       4.567072     -0.757620      2.632769
  H       4.780791      0.849270      2.696257
  C       1.979232      2.155798     -0.911912
  H       2.505158      2.752329     -0.158473
  H       2.401021      1.138882     -0.911297
  H       1.625069      2.156730     -3.020529
  C       2.178885      2.766168     -2.289175
  C       1.616431      4.175996     -2.318351
  O       1.717668      4.980024     -1.415536
  O       1.038237      4.461401     -3.496139
  H       0.750912      5.394830     -3.464366
  N       3.613797      2.867654     -2.585630
  H       4.009792      1.928659     -2.517261
  H       3.729822      3.138620     -3.562452
  C      -2.647856     -0.376363     -3.782300
  H      -2.420531      0.334899     -4.580032
  H      -3.232479     -1.199393     -4.200260
  H      -3.424969     -0.284453     -1.779359
  C      -3.469833      0.311459     -2.709556
  C      -2.909075      1.686313     -2.393964
  O      -2.304503      2.398617     -3.173923
  O      -3.267268      2.085148     -1.159782
  H      -2.913335      2.987934     -1.024688
  N      -4.829926      0.539434     -3.215103
  H      -5.252497     -0.371133     -3.391402
  H      -5.394123      0.972115     -2.482595
43
Coordinates from ORCA-job 3_Cu4_Cys3 E -8719.799956326580
  Cu     -1.270276     -1.862805     -1.139320
  S       0.219763     -0.746334      2.834784
  S      -1.034207     -0.978448     -3.153601
  Cu     -0.490519     -1.851420      1.060792
  Cu     -0.407595      0.349803     -1.491401
  Cu      0.111453      0.519799      0.982919
  S       0.171046      2.173374     -0.447254
  C       2.007496     -0.967956      3.166436
  H       2.145147     -1.129379      4.236440
  H       2.357594     -1.857928      2.631935
  H       2.698533      0.364891      1.633996
  C       2.852500      0.212307      2.717413
  C       2.440211      1.475068      3.449542
  O       2.047261      1.515581      4.597535
  O       2.631419      2.575310      2.700303
  H       2.392750      3.347480      3.249913
  N       4.259667     -0.031277      3.063451
  H       4.539006     -0.899701      2.605469
  H       4.836535      0.694205      2.635717
  C       1.958361      2.226313     -0.836477
  H       2.461954      2.853719     -0.093419
  H       2.387234      1.213151     -0.791142
  H       1.652924      2.147540     -2.951585
  C       2.180640      2.791287     -2.229474
  C       1.594446      4.188447     -2.320624
  O       1.693425      5.040643     -1.462805
  O       0.991185      4.400439     -3.502471
  H       0.681446      5.326388     -3.512070
  N       3.620040      2.906030     -2.493846
  H       4.027919      1.975897     -2.383938
  H       3.756657      3.145490     -3.476369
  C      -2.644128     -0.401309     -3.787726
  H      -2.471524      0.278643     -4.625359
  H      -3.190866     -1.274019     -4.153004
  H      -3.427378     -0.252994     -1.786841
  C      -3.492152      0.300442     -2.741348
  C      -2.986293      1.709765     -2.485481
  O      -2.456567      2.427960     -3.314304
  O      -3.319090      2.131741     -1.251537
  H      -3.004448      3.054408     -1.157821
  N      -4.859803      0.450818     -3.251077
  H      -5.244417     -0.482409     -3.391857
  H      -5.442877      0.888675     -2.537179
43
Coordinates from ORCA-job 3_Cu4_Cys3 E -8719.800396701854
  Cu     -1.216506     -1.826057     -1.198315
  S       0.145093     -0.687808      2.842691
  S      -0.988018     -0.937130     -3.212624
  Cu     -0.550000     -1.767182      1.043513
  Cu     -0.389036      0.384588     -1.528061
  Cu      0.062299      0.572744      0.976551
  S       0.163182      2.211002     -0.471643
  C       1.942609     -0.940249      3.088491
  H       2.114287     -1.136559      4.148076
  H       2.262487     -1.817087      2.514842
  H       2.595183      0.441517      1.582856
  C       2.787660      0.244693      2.653238
  C       2.427026      1.485720      3.447238
  O       2.086430      1.490980      4.611476
  O       2.607266      2.609014      2.730088
  H       2.400804      3.364564      3.315158
  N       4.201456     -0.037607      2.933030
  H       4.448319     -0.892312      2.432336
  H       4.774592      0.694564      2.511912
  C       1.961508      2.256471     -0.805008
  H       2.434785      2.908875     -0.065408
  H       2.386500      1.246191     -0.709986
  H       1.728322      2.115224     -2.926867
  C       2.230146      2.778475     -2.204269
  C       1.643301      4.169458     -2.349391
  O       1.735238      5.053136     -1.525333
  O       1.028924      4.328787     -3.534346
  H       0.709244      5.250134     -3.576994
  N       3.677456      2.889071     -2.417048
  H       4.082231      1.963671     -2.264458
  H       3.854200      3.101801     -3.399109
  C      -2.631558     -0.388309     -3.792903
  H      -2.504574      0.312624     -4.621330
  H      -3.164567     -1.268797     -4.160798
  H      -3.380317     -0.321275     -1.774858
  C      -3.465923      0.265722     -2.706777
  C      -2.978488      1.674395     -2.413949
  O      -2.478580      2.429435     -3.224857
  O      -3.284649      2.043891     -1.156435
  H      -2.989712      2.969382     -1.038266
  N      -4.848599      0.414307     -3.178349
  H      -5.226259     -0.518173     -3.341528
  H      -5.419288      0.817745     -2.435277
43
Coordinates from ORCA-job 3_Cu4_Cys3 E -8719.801275786374
  Cu     -1.189817     -1.822848     -1.211042
  S       0.123523     -0.653772      2.847491
  S      -0.980707     -0.935655     -3.226742
  Cu     -0.610642     -1.713616      1.054900
  Cu     -0.384541      0.410775     -1.556703
  Cu      0.032240      0.622279      0.994337
  S       0.147550      2.235185     -0.479476
  C       1.921907     -0.923200      3.054058
  H       2.103276     -1.121714      4.112020
  H       2.224992     -1.802477      2.475252
  H       2.559190      0.466641      1.550865
  C       2.772866      0.253224      2.614213
  C       2.454386      1.490913      3.427908
  O       2.145791      1.492372      4.600390
  O       2.631689      2.615995      2.711965
  H       2.454369      3.370985      3.307159
  N       4.186975     -0.059319      2.856326
  H       4.410196     -0.909292      2.336403
  H       4.763392      0.671646      2.437403
  C       1.956390      2.295524     -0.770703
  H       2.397712      2.975737     -0.037543
  H       2.385658      1.293537     -0.631039
  H       1.793692      2.099454     -2.897718
  C       2.266568      2.781715     -2.173889
  C       1.674508      4.164316     -2.369459
  O       1.763119      5.076068     -1.577698
  O       1.035850      4.273432     -3.548130
  H       0.700900      5.188669     -3.613503
  N       3.719271      2.895514     -2.335033
  H       4.124487      1.978521     -2.140545
  H       3.933662      3.084049     -3.314124
  C      -2.635462     -0.389953     -3.794721
  H      -2.520452      0.315291     -4.621110
  H      -3.159549     -1.274838     -4.166139
  H      -3.418320     -0.368906     -1.788134
  C      -3.478600      0.244179     -2.704028
  C      -2.996669      1.644547     -2.375042
  O      -2.492166      2.416367     -3.163724
  O      -3.304467      1.980195     -1.108277
  H      -3.012967      2.903434     -0.966952
  N      -4.856212      0.408556     -3.191254
  H      -5.236475     -0.518709     -3.377304
  H      -5.432637      0.794816     -2.443348
43
Coordinates from ORCA-job 3_Cu4_Cys3 E -8719.801559920066
  Cu     -1.154858     -1.797411     -1.238347
  S       0.057953     -0.595468      2.848890
  S      -0.940042     -0.910635     -3.254908
  Cu     -0.682862     -1.640932      1.050697
  Cu     -0.357148      0.447397     -1.581680
  Cu      0.005857      0.678475      0.990167
  S       0.155495      2.276365     -0.494122
  C       1.849623     -0.916112      3.019822
  H       2.038236     -1.131819      4.073367
  H       2.120206     -1.797941      2.428461
  H       2.510664      0.467580      1.521729
  C       2.730553      0.235955      2.579628
  C       2.468803      1.477432      3.404756
  O       2.179102      1.485905      4.581693
  O       2.672137      2.596334      2.684264
  H       2.539140      3.359327      3.280074
  N       4.136199     -0.128563      2.798962
  H       4.325209     -0.978520      2.265604
  H       4.732318      0.589113      2.384225
  C       1.969326      2.360287     -0.742738
  H       2.378572      3.073757     -0.022777
  H       2.415052      1.373313     -0.555491
  H       1.869032      2.075350     -2.864525
  C       2.303429      2.798042     -2.155834
  C       1.675761      4.153818     -2.415117
  O       1.764458      5.109217     -1.675362
  O       0.999784      4.181235     -3.577632
  H       0.636873      5.081503     -3.682678
  N       3.756406      2.944116     -2.278120
  H       4.179611      2.048418     -2.030735
  H       3.997588      3.097437     -3.257018
  C      -2.609899     -0.372216     -3.792971
  H      -2.520302      0.345120     -4.611846
  H      -3.123986     -1.261147     -4.168897
  H      -3.345862     -0.396900     -1.770051
  C      -3.442760      0.227347     -2.674920
  C      -3.003288      1.641441     -2.347126
  O      -2.547250      2.439698     -3.139363
  O      -3.292882      1.952270     -1.068434
  H      -3.034397      2.885039     -0.923066
  N      -4.838696      0.352259     -3.126843
  H      -5.194118     -0.585981     -3.308209
  H      -5.404563      0.709730     -2.356216
43
Coordinates from ORCA-job 3_Cu4_Cys3 E -8719.801961493304
  Cu     -1.123582     -1.774319     -1.247617
  S      -0.009587     -0.514784      2.851324
  S      -0.913997     -0.897712     -3.267872
  Cu     -0.758825     -1.554863      1.056268
  Cu     -0.328706      0.488070     -1.609070
  Cu     -0.011342      0.750801      0.986863
  S       0.169356      2.324736     -0.513962
  C       1.767132     -0.911743      3.008634
  H       1.952269     -1.137416      4.060540
  H       1.997317     -1.805038      2.416598
  H       2.484863      0.431729      1.498461
  C       2.697075      0.196634      2.557459
  C       2.497626      1.456701      3.371585
  O       2.202374      1.493767      4.546056
  O       2.769931      2.553843      2.639280
  H       2.688456      3.332873      3.222943
  N       4.085452     -0.230829      2.776115
  H       4.234567     -1.088735      2.243154
  H       4.713681      0.459033      2.361337
  C       1.984766      2.438048     -0.730755
  H       2.364738      3.177124     -0.020862
  H       2.447204      1.465840     -0.508916
  H       1.949787      2.092159     -2.847774
  C       2.344807      2.846257     -2.148563
  C       1.681304      4.175372     -2.455636
  O       1.789421      5.169628     -1.770435
  O       0.957555      4.134203     -3.587079
  H       0.571565      5.021513     -3.719270
  N       3.795879      3.026867     -2.233433
  H       4.234897      2.152182     -1.942753
  H       4.063055      3.154594     -3.209342
  C      -2.598139     -0.384787     -3.783770
  H      -2.529869      0.335362     -4.602184
  H      -3.098952     -1.282834     -4.155403
  H      -3.298252     -0.430190     -1.749285
  C      -3.423816      0.193355     -2.650346
  C      -3.017053      1.617731     -2.329868
  O      -2.593543      2.427373     -3.128230
  O      -3.303637      1.923998     -1.048785
  H      -3.071345      2.864758     -0.906980
  N      -4.831949      0.287104     -3.081582
  H      -5.168197     -0.660670     -3.251043
  H      -5.389811      0.631899     -2.298490
43
Coordinates from ORCA-job 3_Cu4_Cys3 E -8719.802449998944
  Cu     -1.100145     -1.775342     -1.258369
  S      -0.029010     -0.494180      2.838697
  S      -0.900821     -0.884999     -3.272047
  Cu     -0.773760     -1.536683      1.046469
  Cu     -0.318260      0.519147     -1.621585
  Cu     -0.023704      0.785978      0.986639
  S       0.178866      2.353083     -0.511178
  C       1.742951     -0.919057      2.981623
  H       1.934057     -1.176028      4.024906
  H       1.957939     -1.800169      2.365209
  H       2.473715      0.444428      1.493505
  C       2.686057      0.186721      2.547896
  C       2.501046      1.433418      3.387491
  O       2.188247      1.451419      4.558337
  O       2.804929      2.540950      2.684472
  H       2.736013      3.308993      3.284409
  N       4.072250     -0.255514      2.755765
  H       4.212415     -1.100635      2.200662
  H       4.705829      0.438793      2.356646
  C       1.993000      2.478569     -0.714789
  H       2.362761      3.238322     -0.020690
  H       2.468416      1.518000     -0.467697
  H       1.983085      2.074811     -2.823080
  C       2.360403      2.855678     -2.143229
  C       1.673540      4.163870     -2.489842
  O       1.806301      5.191188     -1.857827
  O       0.903337      4.065026     -3.584875
  H       0.499518      4.940970     -3.739378
  N       3.809067      3.052359     -2.220093
  H       4.256432      2.194478     -1.894398
  H       4.082750      3.148341     -3.198008
  C      -2.593891     -0.393526     -3.768276
  H      -2.535161      0.320333     -4.592818
  H      -3.091325     -1.297851     -4.128355
  H      -3.269144     -0.413204     -1.722869
  C      -3.413649      0.191130     -2.634231
  C      -3.016473      1.624315     -2.340914
  O      -2.598926      2.421920     -3.158308
  O      -3.312608      1.958391     -1.069358
  H      -3.082056      2.902936     -0.946104
  N      -4.826584      0.263962     -3.058255
  H      -5.152709     -0.691759     -3.201764
  H      -5.380223      0.621050     -2.277078
43
Coordinates from ORCA-job 3_Cu4_Cys3 E -8719.802442660457
  Cu     -1.063223     -1.750341     -1.259547
  S      -0.095041     -0.405145      2.837032
  S      -0.852700     -0.867065     -3.272873
  Cu     -0.807565     -1.465480      1.046910
  Cu     -0.284266      0.566215     -1.632038
  Cu     -0.043795      0.863423      0.979164
  S       0.175518      2.416998     -0.520059
  C       1.653226     -0.923525      2.973391
  H       1.849288     -1.183848      4.014930
  H       1.812935     -1.819926      2.360921
  H       2.435245      0.370612      1.451747
  C       2.647362      0.126167      2.509433
  C       2.531228      1.398834      3.324280
  O       2.216410      1.458149      4.494230
  O       2.895325      2.473672      2.600238
  H       2.865899      3.257321      3.183120
  N       4.014594     -0.373956      2.712129
  H       4.107913     -1.234313      2.170122
  H       4.673826      0.282284      2.290941
  C       1.987801      2.569891     -0.689943
  H       2.332318      3.353836     -0.008612
  H       2.479884      1.626310     -0.409420
  H       2.067760      2.101029     -2.783115
  C       2.392803      2.918915     -2.119334
  C       1.666798      4.187032     -2.528161
  O       1.795974      5.253434     -1.960789
  O       0.865658      4.007604     -3.587573
  H       0.428107      4.861155     -3.771513
  N       3.834783      3.162032     -2.150076
  H       4.295951      2.333059     -1.772793
  H       4.140779      3.226112     -3.120957
  C      -2.570435     -0.431667     -3.729241
  H      -2.545437      0.265006     -4.569921
  H      -3.056764     -1.353635     -4.057869
  H      -3.201920     -0.401403     -1.665976
  C      -3.383893      0.165841     -2.595368
  C      -3.013001      1.615897     -2.349823
  O      -2.610571      2.393242     -3.196675
  O      -3.311007      1.989099     -1.090556
  H      -3.088500      2.939237     -0.998148
  N      -4.804335      0.190281     -2.995770
  H      -5.107195     -0.778743     -3.095110
  H      -5.353266      0.565996     -2.220017
43
Coordinates from ORCA-job 3_Cu4_Cys3 E -8719.802824600694
  Cu     -1.016913     -1.721784     -1.266694
  S      -0.112293     -0.355190      2.832729
  S      -0.817962     -0.819681     -3.270025
  Cu     -0.794269     -1.427049      1.040859
  Cu     -0.272722      0.624367     -1.629557
  Cu     -0.033742      0.914062      0.981752
  S       0.173489      2.473508     -0.504583
  C       1.617467     -0.932770      2.982768
  H       1.799562     -1.211015      4.022330
  H       1.753854     -1.826900      2.361463
  H       2.438115      0.349355      1.475455
  C       2.645075      0.090900      2.530781
  C       2.571592      1.361143      3.355759
  O       2.255515      1.424811      4.524987
  O       2.974700      2.425876      2.637366
  H       2.965427      3.209440      3.220376
  N       3.995052     -0.454955      2.726512
  H       4.058687     -1.314520      2.178498
  H       4.673399      0.182014      2.305941
  C       1.979381      2.640142     -0.686255
  H       2.319974      3.449405     -0.033087
  H       2.485139      1.713379     -0.377990
  H       2.050279      2.105298     -2.761428
  C       2.375130      2.946446     -2.127233
  C       1.637623      4.195086     -2.565245
  O       1.776769      5.282615     -2.042560
  O       0.809243      3.969447     -3.594034
  H       0.356877      4.809989     -3.797730
  N       3.814860      3.194107     -2.175160
  H       4.280075      2.378488     -1.774321
  H       4.114539      3.226255     -3.149442
  C      -2.551182     -0.448751     -3.720871
  H      -2.551815      0.230150     -4.576706
  H      -3.019838     -1.388445     -4.023711
  H      -3.168745     -0.380326     -1.653014
  C      -3.367686      0.160318     -2.595663
  C      -3.008913      1.620135     -2.378217
  O      -2.599857      2.384741     -3.233148
  O      -3.316568      2.014843     -1.128601
  H      -3.104308      2.967994     -1.053294
  N      -4.789108      0.157039     -2.984479
  H      -5.081170     -0.817491     -3.059251
  H      -5.340261      0.547154     -2.217967
43
Coordinates from ORCA-job 3_Cu4_Cys3 E -8719.802813714225
  Cu     -0.957796     -1.690501     -1.240106
  S      -0.140959     -0.315305      2.871962
  S      -0.749536     -0.764173     -3.228988
  Cu     -0.785523     -1.386767      1.066236
  Cu     -0.273879      0.692489     -1.578353
  Cu     -0.063221      0.975110      1.030652
  S       0.131900      2.543460     -0.444865
  C       1.581953     -0.932004      2.966907
  H       1.796682     -1.206404      4.001408
  H       1.667898     -1.833188      2.347418
  H       2.388124      0.324226      1.432729
  C       2.624512      0.058077      2.480543
  C       2.613958      1.321781      3.319625
  O       2.342694      1.373708      4.500340
  O       3.021437      2.389023      2.612485
  H       3.041935      3.154822      3.220213
  N       3.961795     -0.531757      2.623968
  H       3.976817     -1.393907      2.076241
  H       4.641722      0.081910      2.172151
  C       1.935275      2.723081     -0.625463
  H       2.262970      3.565152     -0.008085
  H       2.449710      1.818539     -0.271851
  H       2.018049      2.094197     -2.672980
  C       2.340472      2.964920     -2.078808
  C       1.612626      4.190725     -2.592198
  O       1.731540      5.306238     -2.132101
  O       0.810815      3.903902     -3.629007
  H       0.354218      4.727373     -3.888434
  N       3.780517      3.207887     -2.127642
  H       4.240636      2.410347     -1.686354
  H       4.088494      3.196129     -3.099717
  C      -2.496678     -0.470623     -3.686293
  H      -2.525412      0.175692     -4.567287
  H      -2.942880     -1.433053     -3.949509
  H      -3.111011     -0.336387     -1.619955
  C      -3.324505      0.162530     -2.583674
  C      -2.986038      1.635020     -2.416654
  O      -2.572869      2.374186     -3.290317
  O      -3.317571      2.068816     -1.186497
  H      -3.126740      3.027773     -1.144344
  N      -4.743815      0.115829     -2.961435
  H      -5.020144     -0.865094     -3.001998
  H      -5.303700      0.525860     -2.212651
43
Coordinates from ORCA-job 3_Cu4_Cys3 E -8719.802997926647
  Cu     -0.936361     -1.696619     -1.233043
  S      -0.134784     -0.293453      2.865779
  S      -0.722010     -0.771186     -3.223156
  Cu     -0.788758     -1.379048      1.071949
  Cu     -0.276187      0.698407     -1.578270
  Cu     -0.056205      0.987945      1.027410
  S       0.088363      2.556671     -0.445633
  C       1.574224     -0.946254      2.953498
  H       1.776949     -1.236816      3.986195
  H       1.649841     -1.839013      2.321153
  H       2.385745      0.337377      1.445913
  C       2.626637      0.042445      2.485789
  C       2.638578      1.286767      3.350023
  O       2.384850      1.316948      4.535985
  O       3.041018      2.364177      2.651552
  H       3.069628      3.122668      3.267688
  N       3.954828     -0.570863      2.608930
  H       3.954732     -1.423850      2.047272
  H       4.641606      0.041010      2.164688
  C       1.893854      2.753910     -0.629225
  H       2.207845      3.615040     -0.031634
  H       2.411380      1.862627     -0.248738
  H       2.016254      2.086294     -2.664014
  C       2.313210      2.972154     -2.078545
  C       1.570135      4.174738     -2.618281
  O       1.631796      5.288748     -2.145663
  O       0.816448      3.866436     -3.687834
  H       0.346223      4.677677     -3.962422
  N       3.748636      3.246525     -2.112942
  H       4.221392      2.464192     -1.657671
  H       4.069135      3.231351     -3.081054
  C      -2.480322     -0.490272     -3.661716
  H      -2.529000      0.121218     -4.566707
  H      -2.931304     -1.461820     -3.880438
  H      -3.083029     -0.292859     -1.596819
  C      -3.298356      0.181720     -2.572903
  C      -2.953625      1.655846     -2.448354
  O      -2.543241      2.368184     -3.343689
  O      -3.267317      2.119809     -1.223991
  H      -3.065309      3.077517     -1.205705
  N      -4.718299      0.127428     -2.936570
  H      -5.000371     -0.852185     -2.954526
  H      -5.274359      0.558044     -2.196968
43
Coordinates from ORCA-job 3_Cu4_Cys3 E -8719.803184021090
  Cu     -0.923378     -1.688567     -1.235493
  S      -0.129150     -0.289227      2.865281
  S      -0.715255     -0.752427     -3.221790
  Cu     -0.793649     -1.370242      1.069873
  Cu     -0.272167      0.707338     -1.573827
  Cu     -0.063736      0.997347      1.031122
  S       0.081152      2.564782     -0.445044
  C       1.578917     -0.946349      2.927140
  H       1.782091     -1.252883      3.955047
  H       1.651646     -1.828826      2.279708
  H       2.387650      0.371269      1.443839
  C       2.630045      0.051289      2.476112
  C       2.644388      1.276539      3.365518
  O       2.405887      1.280128      4.554600
  O       3.028512      2.371867      2.683736
  H       3.062685      3.117319      3.315349
  N       3.957958     -0.565333      2.584561
  H       3.956948     -1.406939      2.006327
  H       4.645990      0.055334      2.154442
  C       1.890652      2.760391     -0.615354
  H       2.194479      3.633841     -0.030586
  H       2.405133      1.876610     -0.213089
  H       2.033701      2.051689     -2.635862
  C       2.313660      2.952410     -2.064688
  C       1.554532      4.131846     -2.635693
  O       1.571927      5.251786     -2.172941
  O       0.845329      3.793666     -3.727521
  H       0.371700      4.591681     -4.030969
  N       3.744886      3.253212     -2.097002
  H       4.231395      2.487271     -1.628317
  H       4.070519      3.231336     -3.063448
  C      -2.475052     -0.473245     -3.661157
  H      -2.528648      0.133699     -4.568583
  H      -2.920810     -1.448050     -3.876333
  H      -3.080037     -0.290014     -1.597388
  C      -3.293213      0.193643     -2.568768
  C      -2.957352      1.668577     -2.436562
  O      -2.543952      2.388100     -3.323989
  O      -3.291473      2.125611     -1.213934
  H      -3.099181      3.085149     -1.190373
  N      -4.714250      0.139100     -2.934071
  H      -4.995399     -0.840362     -2.964044
  H      -5.270607      0.559267     -2.188515
43
Coordinates from ORCA-job 3_Cu4_Cys3 E -8719.803362248216
  Cu     -0.910578     -1.682268     -1.214034
  S      -0.126400     -0.264908      2.876127
  S      -0.699090     -0.741617     -3.198642
  Cu     -0.808051     -1.351158      1.088496
  Cu     -0.270929      0.718116     -1.554366
  Cu     -0.069257      1.020243      1.044825
  S       0.061025      2.582243     -0.439878
  C       1.568964     -0.956491      2.927962
  H       1.765393     -1.265548      3.956303
  H       1.623403     -1.841785      2.281484
  H       2.409537      0.342966      1.443094
  C       2.640775      0.018255      2.475633
  C       2.675388      1.246156      3.360780
  O       2.449939      1.257045      4.551940
  O       3.060180      2.335957      2.669962
  H       3.114025      3.083656      3.297456
  N       3.956644     -0.622599      2.591716
  H       3.941910     -1.465677      2.015985
  H       4.659983     -0.016314      2.166053
  C       1.871538      2.800277     -0.604093
  H       2.155643      3.689222     -0.032441
  H       2.394241      1.930597     -0.182049
  H       2.039470      2.054458     -2.610311
  C       2.297770      2.970898     -2.053843
  C       1.522659      4.125402     -2.659868
  O       1.494535      5.250219     -2.207427
  O       0.867215      3.762715     -3.776170
  H       0.396388      4.549991     -4.108798
  N       3.723932      3.299908     -2.085033
  H       4.224486      2.551349     -1.603015
  H       4.054391      3.271079     -3.049901
  C      -2.458553     -0.476461     -3.647750
  H      -2.514710      0.108625     -4.568738
  H      -2.894777     -1.459963     -3.841374
  H      -3.059458     -0.268850     -1.588575
  C      -3.277917      0.202471     -2.564218
  C      -2.960614      1.682093     -2.457921
  O      -2.540311      2.389406     -3.351478
  O      -3.324490      2.159431     -1.250105
  H      -3.145741      3.121750     -1.242370
  N      -4.701647      0.133360     -2.927702
  H      -4.975219     -0.848554     -2.948996
  H      -5.257223      0.553940     -2.181409
43
Coordinates from ORCA-job 3_Cu4_Cys3 E -8719.803343182357
  Cu     -0.887787     -1.681865     -1.189761
  S      -0.125922     -0.245871      2.895554
  S      -0.680229     -0.737261     -3.173433
  Cu     -0.819444     -1.334684      1.109129
  Cu     -0.265005      0.723549     -1.533185
  Cu     -0.072935      1.036935      1.064395
  S       0.037937      2.593293     -0.428914
  C       1.559162     -0.965140      2.897802
  H       1.767008     -1.304339      3.914374
  H       1.591311     -1.833545      2.227012
  H       2.394324      0.364388      1.434995
  C       2.636011      0.008174      2.454540
  C       2.693577      1.211817      3.372838
  O       2.504554      1.188650      4.570108
  O       3.050764      2.323468      2.702695
  H       3.120050      3.053573      3.349170
  N       3.946089     -0.649198      2.534752
  H       3.912820     -1.475989      1.936506
  H       4.651032     -0.039840      2.116701
  C       1.848198      2.838876     -0.581263
  H       2.108069      3.749211     -0.032179
  H       2.378469      1.989594     -0.128846
  H       2.049706      2.040403     -2.564438
  C       2.284706      2.976867     -2.031304
  C       1.496242      4.098525     -2.682817
  O       1.425508      5.229789     -2.252795
  O       0.891083      3.702542     -3.815257
  H       0.418149      4.475532     -4.179069
  N       3.705275      3.331213     -2.063129
  H       4.216674      2.604389     -1.559732
  H       4.041519      3.283427     -3.025321
  C      -2.442385     -0.490212     -3.618673
  H      -2.503898      0.067701     -4.555806
  H      -2.874398     -1.481041     -3.781408
  H      -3.030803     -0.234414     -1.563747
  C      -3.254910      0.213877     -2.548769
  C      -2.940177      1.694949     -2.484933
  O      -2.505470      2.372738     -3.394558
  O      -3.328556      2.212304     -1.301057
  H      -3.154106      3.175085     -1.324178
  N      -4.682319      0.137127     -2.904055
  H      -4.954051     -0.845668     -2.904411
  H      -5.231371      0.570709     -2.160219
43
Coordinates from ORCA-job 3_Cu4_Cys3 E -8719.803223989960
  Cu     -0.852010     -1.663397     -1.156425
  S      -0.121090     -0.202550      2.915259
  S      -0.637086     -0.712790     -3.138330
  Cu     -0.835730     -1.295976      1.136221
  Cu     -0.263307      0.751565     -1.500356
  Cu     -0.102126      1.087223      1.093471
  S      -0.016636      2.632194     -0.415343
  C       1.541209     -0.972826      2.863673
  H       1.763914     -1.341847      3.866912
  H       1.530600     -1.826656      2.172887
  H       2.389361      0.357389      1.407738
  C       2.638404     -0.024762      2.416495
  C       2.743547      1.158735      3.358706
  O       2.604543      1.106865      4.562471
  O       3.079484      2.285288      2.704077
  H       3.177572      2.997836      3.366757
  N       3.929442     -0.721187      2.459484
  H       3.859213     -1.535103      1.846474
  H       4.644123     -0.125637      2.038246
  C       1.788840      2.927411     -0.533925
  H       2.004580      3.875048     -0.030923
  H       2.332585      2.122660     -0.020966
  H       2.063285      2.017955     -2.458475
  C       2.253936      2.993742     -1.980016
  C       1.449487      4.045327     -2.722398
  O       1.301117      5.189547     -2.347538
  O       0.930662      3.573065     -3.867530
  H       0.446206      4.307065     -4.292400
  N       3.663475      3.391954     -2.007068
  H       4.186336      2.712991     -1.451257
  H       4.019791      3.295351     -2.958388
  C      -2.404965     -0.499440     -3.579238
  H      -2.474359      0.023633     -4.535443
  H      -2.826942     -1.500018     -3.704355
  H      -2.987130     -0.178695     -1.532485
  C      -3.219541      0.233934     -2.531533
  C      -2.917366      1.718892     -2.524597
  O      -2.464315      2.360185     -3.453223
  O      -3.333593      2.283983     -1.372836
  H      -3.161328      3.245226     -1.433377
  N      -4.648562      0.131705     -2.877171
  H      -4.906016     -0.854648     -2.846643
  H      -5.195141      0.578400     -2.139322
43
Coordinates from ORCA-job 3_Cu4_Cys3 E -8719.803133182371
  Cu     -0.867795     -1.670562     -1.085369
  S      -0.096240     -0.158992      2.954603
  S      -0.644201     -0.743697     -3.077656
  Cu     -0.862384     -1.265617      1.198377
  Cu     -0.271329      0.738759     -1.465659
  Cu     -0.098912      1.112553      1.127186
  S      -0.043326      2.632739     -0.409417
  C       1.542095     -0.973985      2.844725
  H       1.778718     -1.380518      3.830251
  H       1.496811     -1.806384      2.128432
  H       2.386411      0.371902      1.401675
  C       2.650082     -0.037894      2.396320
  C       2.796924      1.122054      3.363417
  O       2.708964      1.039542      4.570140
  O       3.105517      2.264107      2.722558
  H       3.228855      2.962644      3.395278
  N       3.925895     -0.762348      2.395449
  H       3.824668     -1.559308      1.764243
  H       4.644094     -0.172242      1.971988
  C       1.756035      2.965996     -0.515250
  H       1.942056      3.927197     -0.026692
  H       2.306888      2.182006      0.020592
  H       2.093050      2.032192     -2.417122
  C       2.248876      3.020929     -1.951865
  C       1.441273      4.042008     -2.728549
  O       1.230060      5.176202     -2.353608
  O       1.013148      3.563855     -3.907039
  H       0.526396      4.283611     -4.353640
  N       3.649682      3.451558     -1.961064
  H       4.176887      2.793408     -1.384507
  H       4.025206      3.345375     -2.904112
  C      -2.408448     -0.544070     -3.541121
  H      -2.461227     -0.055894     -4.516662
  H      -2.833556     -1.546765     -3.633676
  H      -3.018814     -0.144558     -1.516900
  C      -3.232995      0.232222     -2.534036
  C      -2.918966      1.714159     -2.574532
  O      -2.427504      2.313701     -3.509832
  O      -3.365900      2.327782     -1.461534
  H      -3.184666      3.283872     -1.555941
  N      -4.658808      0.127866     -2.893729
  H      -4.919775     -0.856224     -2.833059
  H      -5.209272      0.600454     -2.175349
43
Coordinates from ORCA-job 3_Cu4_Cys3 E -8719.803317875041
  Cu     -0.868787     -1.658331     -1.093734
  S      -0.095054     -0.158595      2.952117
  S      -0.640200     -0.734055     -3.087611
  Cu     -0.866665     -1.256852      1.191355
  Cu     -0.270580      0.746760     -1.472008
  Cu     -0.096952      1.116954      1.127834
  S      -0.045270      2.638463     -0.409606
  C       1.543395     -0.972025      2.838591
  H       1.779253     -1.389660      3.819647
  H       1.498821     -1.797623      2.113503
  H       2.392242      0.382596      1.408797
  C       2.654347     -0.034188      2.400550
  C       2.803213      1.116352      3.377309
  O       2.714463      1.021751      4.583186
  O       3.107513      2.265095      2.746526
  H       3.230427      2.956769      3.426402
  N       3.928046     -0.762921      2.394548
  H       3.826018     -1.553619      1.755466
  H       4.647856     -0.170736      1.976155
  C       1.749495      2.986695     -0.512754
  H       1.926273      3.960148     -0.045186
  H       2.308504      2.221191      0.041564
  H       2.095373      2.010935     -2.390426
  C       2.244017      3.011908     -1.949620
  C       1.427552      4.010033     -2.746353
  O       1.208281      5.150547     -2.396139
  O       0.992846      3.499029     -3.909403
  H       0.494883      4.201473     -4.370851
  N       3.641949      3.452475     -1.966279
  H       4.171959      2.814046     -1.370295
  H       4.021422      3.323121     -2.904910
  C      -2.402426     -0.525828     -3.555745
  H      -2.450125     -0.020285     -4.522782
  H      -2.830687     -1.525026     -3.667650
  H      -3.015441     -0.148315     -1.526661
  C      -3.228884      0.238116     -2.540081
  C      -2.913500      1.721288     -2.560982
  O      -2.428635      2.335059     -3.491161
  O      -3.345553      2.316351     -1.432812
  H      -3.161349      3.273402     -1.511608
  N      -4.654164      0.135320     -2.898845
  H      -4.913988     -0.849375     -2.845898
  H      -5.205415      0.601194     -2.176840
43
Coordinates from ORCA-job 3_Cu4_Cys3 E -8719.803390886977
  Cu     -0.879451     -1.637608     -1.086760
  S      -0.091589     -0.142740      2.959038
  S      -0.634994     -0.723629     -3.084936
  Cu     -0.877590     -1.235089      1.198282
  Cu     -0.278566      0.759839     -1.467712
  Cu     -0.102297      1.134623      1.137071
  S      -0.049400      2.652474     -0.407236
  C       1.541598     -0.963190      2.832509
  H       1.780589     -1.390559      3.808651
  H       1.487554     -1.783139      2.100961
  H       2.395960      0.391148      1.407060
  C       2.658864     -0.031544      2.396026
  C       2.820775      1.111093      3.378681
  O       2.745028      1.005388      4.584528
  O       3.119012      2.265295      2.755393
  H       3.249130      2.949414      3.441887
  N       3.925653     -0.772440      2.380321
  H       3.813917     -1.558102      1.736469
  H       4.648472     -0.184334      1.960953
  C       1.742585      3.008547     -0.506083
  H       1.912903      3.991366     -0.056243
  H       2.304869      2.257501      0.064833
  H       2.098862      1.997712     -2.362359
  C       2.244248      3.007571     -1.941125
  C       1.429357      3.990126     -2.759401
  O       1.203943      5.135944     -2.431567
  O       0.998234      3.454916     -3.913628
  H       0.498866      4.145325     -4.390878
  N       3.641579      3.450647     -1.957570
  H       4.168384      2.827412     -1.342889
  H       4.028161      3.300368     -2.890162
  C      -2.393264     -0.512522     -3.566257
  H      -2.434248      0.008067     -4.525710
  H      -2.819713     -1.510038     -3.697219
  H      -3.019137     -0.157589     -1.535660
  C      -3.230272      0.235680     -2.546789
  C      -2.924145      1.721398     -2.548360
  O      -2.446474      2.351453     -3.471259
  O      -3.355511      2.296289     -1.409886
  H      -3.176906      3.255626     -1.473684
  N      -4.652274      0.125160     -2.912494
  H      -4.906443     -0.861232     -2.867572
  H      -5.211798      0.583010     -2.191911
43
Coordinates from ORCA-job 3_Cu4_Cys3 E -8719.803518531024
  Cu     -0.890312     -1.625614     -1.072452
  S      -0.080699     -0.133231      2.970243
  S      -0.635500     -0.719114     -3.073491
  Cu     -0.883017     -1.223341      1.212103
  Cu     -0.283473      0.766330     -1.457538
  Cu     -0.098699      1.144740      1.151552
  S      -0.054922      2.659967     -0.398432
  C       1.547079     -0.961253      2.832551
  H       1.789520     -1.391856      3.806488
  H       1.484161     -1.779508      2.099459
  H       2.404071      0.386771      1.403180
  C       2.668193     -0.035856      2.391839
  C       2.837884      1.105686      3.373483
  O       2.777368      0.996199      4.579945
  O       3.123376      2.263186      2.750362
  H       3.256901      2.945261      3.438499
  N       3.930261     -0.784809      2.372235
  H       3.811352     -1.569822      1.728735
  H       4.654958     -0.201478      1.949324
  C       1.734088      3.027673     -0.496731
  H       1.895691      4.019034     -0.062676
  H       2.300936      2.290989      0.088192
  H       2.103858      1.988827     -2.334966
  C       2.241166      3.006412     -1.930006
  C       1.422428      3.970245     -2.767312
  O       1.181593      5.117634     -2.457189
  O       1.006183      3.414809     -3.918125
  H       0.505473      4.093683     -4.410075
  N       3.635150      3.459765     -1.947911
  H       4.163667      2.852518     -1.318870
  H       4.027307      3.295045     -2.875698
  C      -2.388290     -0.504623     -3.571530
  H      -2.420841      0.022629     -4.527704
  H      -2.814158     -1.500775     -3.713415
  H      -3.031228     -0.159469     -1.543758
  C      -3.234496      0.237433     -2.554903
  C      -2.928717      1.723189     -2.545216
  O      -2.448715      2.359928     -3.462302
  O      -3.366067      2.289368     -1.404400
  H      -3.187927      3.249537     -1.459643
  N      -4.652493      0.127541     -2.933540
  H      -4.908485     -0.858462     -2.894073
  H      -5.220156      0.584450     -2.218919
43
Coordinates from ORCA-job 3_Cu4_Cys3 E -8719.803652011351
  Cu     -0.907373     -1.601872     -1.042857
  S      -0.065205     -0.105116      2.990828
  S      -0.633348     -0.710654     -3.049615
  Cu     -0.894898     -1.196230      1.239292
  Cu     -0.290060      0.781904     -1.437253
  Cu     -0.093239      1.171581      1.177993
  S      -0.065015      2.680328     -0.382885
  C       1.547642     -0.956312      2.831651
  H       1.795922     -1.388296      3.803612
  H       1.462746     -1.774392      2.100518
  H       2.412634      0.370167      1.386359
  C       2.678443     -0.049334      2.376156
  C       2.867520      1.094614      3.350244
  O       2.836703      0.984956      4.557959
  O       3.132461      2.254216      2.721855
  H       3.274292      2.936045      3.408913
  N       3.928606     -0.817621      2.351825
  H       3.792036     -1.604388      1.713858
  H       4.658528     -0.248362      1.918733
  C       1.719901      3.065940     -0.479494
  H       1.865815      4.070652     -0.071544
  H       2.291391      2.353562      0.129783
  H       2.121776      1.983029     -2.286660
  C       2.241410      3.012629     -1.907330
  C       1.417798      3.941096     -2.779922
  O       1.149958      5.090659     -2.503537
  O       1.032607      3.349811     -3.924625
  H       0.530543      4.007899     -4.442470
  N       3.627823      3.487260     -1.923373
  H       4.158746      2.908477     -1.270100
  H       4.032904      3.301757     -2.841624
  C      -2.376950     -0.495460     -3.574988
  H      -2.399249      0.040155     -4.526776
  H      -2.797798     -1.491394     -3.732140
  H      -3.048822     -0.169461     -1.552783
  C      -3.240149      0.234282     -2.563310
  C      -2.938786      1.720534     -2.535260
  O      -2.456432      2.369522     -3.441933
  O      -3.388597      2.271791     -1.391003
  H      -3.214331      3.233567     -1.432647
  N      -4.650288      0.124073     -2.966397
  H      -4.909303     -0.861266     -2.937815
  H      -5.233891      0.579286     -2.263925
43
Coordinates from ORCA-job 3_Cu4_Cys3 E -8719.803743217977
  Cu     -0.915391     -1.591416     -1.023010
  S      -0.051879     -0.091334      3.003654
  S      -0.631776     -0.707376     -3.032523
  Cu     -0.899047     -1.185195      1.257468
  Cu     -0.294035      0.789040     -1.421688
  Cu     -0.086724      1.184092      1.195185
  S      -0.075826      2.690935     -0.369622
  C       1.552504     -0.955622      2.831610
  H       1.804253     -1.389274      3.801965
  H       1.455914     -1.772546      2.100684
  H       2.418694      0.363912      1.379618
  C       2.687009     -0.056880      2.368428
  C       2.887396      1.086311      3.341354
  O       2.877212      0.973833      4.549291
  O       3.135658      2.249113      2.711976
  H       3.283002      2.930207      3.398606
  N       3.931066     -0.834356      2.337637
  H       3.784032     -1.620736      1.701490
  H       4.662578     -0.271194      1.899348
  C       1.706669      3.088276     -0.468313
  H       1.843145      4.101148     -0.077595
  H       2.280682      2.391423      0.155986
  H       2.124143      1.978021     -2.255955
  C       2.234734      3.014592     -1.892801
  C       1.409382      3.921658     -2.785996
  O       1.126926      5.072106     -2.528487
  O       1.044386      3.311564     -3.927524
  H       0.542526      3.958602     -4.459546
  N       3.617583      3.498627     -1.911387
  H       4.149859      2.935781     -1.245478
  H       4.028000      3.299943     -2.824510
  C      -2.369550     -0.491025     -3.574381
  H      -2.384490      0.045930     -4.525474
  H      -2.787821     -1.487256     -3.737025
  H      -3.060889     -0.170280     -1.558204
  C      -3.243039      0.235962     -2.569303
  C      -2.941392      1.721983     -2.536194
  O      -2.455122      2.372849     -3.439159
  O      -3.396505      2.271147     -1.392659
  H      -3.221117      3.232789     -1.431293
  N      -4.648100      0.127555     -2.989007
  H      -4.909684     -0.857146     -2.965090
  H      -5.240494      0.583871     -2.294767
43
Coordinates from ORCA-job 3_Cu4_Cys3 E -8719.803823325321
  Cu     -0.928717     -1.579969     -0.990038
  S      -0.033971     -0.069693      3.022802
  S      -0.627316     -0.707481     -3.003605
  Cu     -0.908601     -1.170782      1.286988
  Cu     -0.300669      0.795680     -1.394466
  Cu     -0.082434      1.201770      1.219389
  S      -0.097757      2.705866     -0.349859
  C       1.558201     -0.952385      2.826390
  H       1.817676     -1.391291      3.792398
  H       1.443430     -1.765651      2.093937
  H       2.420899      0.363768      1.367150
  C       2.695997     -0.063633      2.351569
  C       2.916900      1.074804      3.327061
  O       2.940145      0.954509      4.534180
  O       3.138426      2.243922      2.699520
  H       3.297741      2.922210      3.386079
  N       3.931105     -0.853774      2.303919
  H       3.766731     -1.637480      1.668691
  H       4.663184     -0.297657      1.857782
  C       1.682048      3.119526     -0.450509
  H       1.804460      4.143672     -0.085430
  H       2.257501      2.445724      0.196953
  H       2.123594      1.969281     -2.207450
  C       2.221214      3.015586     -1.868224
  C       1.397290      3.891749     -2.792278
  O       1.090963      5.041753     -2.559566
  O       1.068790      3.258210     -3.931543
  H       0.568741      3.889701     -4.483905
  N       3.600223      3.510088     -1.890060
  H       4.132578      2.968710     -1.206665
  H       4.018696      3.292030     -2.795083
  C      -2.356085     -0.487061     -3.569815
  H      -2.357662      0.051243     -4.520116
  H      -2.771650     -1.483326     -3.739869
  H      -3.076276     -0.172326     -1.564198
  C      -3.243780      0.238340     -2.575839
  C      -2.939319      1.723734     -2.537790
  O      -2.445024      2.374419     -3.436388
  O      -3.399454      2.273516     -1.396488
  H      -3.220058      3.234218     -1.434006
  N      -4.642062      0.134853     -3.018923
  H      -4.906765     -0.849114     -3.001109
  H      -5.244464      0.592373     -2.334275
43
Coordinates from ORCA-job 3_Cu4_Cys3 E -8719.803875973845
  Cu     -0.940562     -1.565768     -0.957696
  S      -0.017400     -0.051473      3.044185
  S      -0.619811     -0.702065     -2.972952
  Cu     -0.917764     -1.155043      1.316640
  Cu     -0.307945      0.806123     -1.363415
  Cu     -0.082264      1.219297      1.245391
  S      -0.119141      2.723045     -0.325074
  C       1.564570     -0.946894      2.818736
  H       1.836034     -1.392966      3.778243
  H       1.431465     -1.755280      2.083530
  H       2.415940      0.371327      1.353165
  C       2.701894     -0.064552      2.331010
  C       2.944868      1.066550      3.311011
  O       2.999164      0.935766      4.516061
  O       3.144603      2.242054      2.688638
  H       3.318392      2.915261      3.376600
  N       3.929531     -0.864075      2.260901
  H       3.748587     -1.644037      1.625509
  H       4.659117     -0.311860      1.805891
  C       1.658263      3.149316     -0.428648
  H       1.769183      4.184218     -0.091581
  H       2.234937      2.499555      0.241796
  H       2.117064      1.953551     -2.150208
  C       2.205045      3.009853     -1.839527
  C       1.383244      3.854096     -2.793981
  O       1.054812      5.003669     -2.588981
  O       1.088569      3.194877     -3.927297
  H       0.590901      3.808488     -4.501560
  N       3.581810      3.511201     -1.869504
  H       4.114052      2.991608     -1.169230
  H       4.005667      3.270192     -2.766202
  C      -2.338698     -0.479558     -3.566743
  H      -2.323730      0.062467     -4.514771
  H      -2.750675     -1.475486     -3.747438
  H      -3.093350     -0.174308     -1.573589
  C      -3.242914      0.242527     -2.585262
  C      -2.936089      1.727479     -2.537201
  O      -2.432774      2.380911     -3.428984
  O      -3.401994      2.273946     -1.397196
  H      -3.219087      3.233955     -1.430727
  N      -4.633807      0.143515     -3.052998
  H      -4.898899     -0.840467     -3.043417
  H      -5.246338      0.598619     -2.375811
43
Coordinates from ORCA-job 3_Cu4_Cys3 E -8719.803863314839
  Cu     -0.963896     -1.544323     -0.899798
  S       0.005483     -0.022451      3.083139
  S      -0.607605     -0.698401     -2.917170
  Cu     -0.937112     -1.127174      1.369974
  Cu     -0.321818      0.821495     -1.308427
  Cu     -0.089852      1.247931      1.289587
  S      -0.152468      2.750330     -0.281836
  C       1.570487     -0.934014      2.802367
  H       1.866122     -1.394316      3.748113
  H       1.405575     -1.732671      2.061971
  H       2.391753      0.395852      1.328223
  C       2.702801     -0.058997      2.290307
  C       2.990475      1.054316      3.279774
  O       3.095394      0.901832      4.478863
  O       3.163798      2.240510      2.670395
  H       3.368834      2.901740      3.361285
  N       3.916983     -0.872325      2.170315
  H       3.705566     -1.642446      1.532141
  H       4.638626     -0.323130      1.699013
  C       1.622220      3.192496     -0.390553
  H       1.717103      4.241867     -0.096253
  H       2.199340      2.579580      0.313441
  H       2.109455      1.930284     -2.055737
  C       2.182917      2.999914     -1.788581
  C       1.367537      3.795726     -2.788354
  O       1.006079      4.942666     -2.626506
  O       1.124855      3.098546     -3.910488
  H       0.631141      3.682997     -4.517479
  N       3.556838      3.510823     -1.828010
  H       4.086911      3.023787     -1.102903
  H       3.990464      3.235997     -2.710304
  C      -2.309299     -0.474473     -3.557330
  H      -2.266120      0.069680     -4.503241
  H      -2.716131     -1.470011     -3.751010
  H      -3.118523     -0.173606     -1.586492
  C      -3.238979      0.247150     -2.599882
  C      -2.930840      1.731646     -2.541919
  O      -2.414059      2.385957     -3.425540
  O      -3.408349      2.276793     -1.407074
  H      -3.222105      3.236155     -1.438069
  N      -4.617836      0.151233     -3.104866
  H      -4.881442     -0.833178     -3.103377
  H      -5.245850      0.603848     -2.440399
43
Coordinates from ORCA-job 3_Cu4_Cys3 E -8719.803936124743
  Cu     -0.980848     -1.522695     -0.865255
  S       0.024859     -0.006451      3.107152
  S      -0.597736     -0.686898     -2.882009
  Cu     -0.949056     -1.105996      1.402727
  Cu     -0.332544      0.838182     -1.271513
  Cu     -0.097780      1.269466      1.320772
  S      -0.179341      2.772416     -0.249899
  C       1.578477     -0.924898      2.786188
  H       1.890204     -1.399063      3.720036
  H       1.392837     -1.713969      2.039298
  H       2.380485      0.417094      1.312192
  C       2.707478     -0.052796      2.261979
  C       3.023331      1.044516      3.260633
  O       3.159579      0.872093      4.453792
  O       3.182218      2.240405      2.666725
  H       3.408638      2.889281      3.362843
  N       3.912365     -0.873955      2.107385
  H       3.682732     -1.633715      1.462734
  H       4.629343     -0.323747      1.629799
  C       1.590305      3.232775     -0.362666
  H       1.668682      4.295248     -0.113708
  H       2.170799      2.660119      0.371768
  H       2.100120      1.902741     -1.966875
  C       2.160425      2.984262     -1.747435
  C       1.345074      3.727602     -2.787153
  O       0.947579      4.867797     -2.668621
  O       1.149548      2.991173     -3.893508
  H       0.655239      3.542082     -4.530503
  N       3.530280      3.506909     -1.803153
  H       4.061229      3.056923     -1.054952
  H       3.970907      3.196567     -2.670180
  C      -2.284243     -0.457001     -3.558172
  H      -2.218403      0.096765     -4.497161
  H      -2.687730     -1.449915     -3.770464
  H      -3.133369     -0.172104     -1.601944
  C      -3.231860      0.257170     -2.613672
  C      -2.922811      1.740762     -2.537125
  O      -2.397210      2.402947     -3.410283
  O      -3.408736      2.274788     -1.401191
  H      -3.220596      3.234085     -1.421056
  N      -4.601519      0.166228     -3.145624
  H      -4.863376     -0.818511     -3.157608
  H      -5.241109      0.610953     -2.486985
43
Coordinates from ORCA-job 3_Cu4_Cys3 E -8719.803977079448
  Cu     -1.001770     -1.521510     -0.839732
  S       0.039799     -0.020580      3.128333
  S      -0.602379     -0.688352     -2.851997
  Cu     -0.952723     -1.113740      1.429501
  Cu     -0.348565      0.839846     -1.235470
  Cu     -0.108148      1.262283      1.345739
  S      -0.194900      2.775485     -0.209948
  C       1.597402     -0.919628      2.772463
  H       1.926293     -1.406263      3.694124
  H       1.409070     -1.699244      2.015332
  H       2.358923      0.459263      1.311509
  C       2.708950     -0.027705      2.244674
  C       3.037124      1.053048      3.256453
  O       3.184811      0.864916      4.445591
  O       3.195554      2.255381      2.674154
  H       3.438125      2.895875      3.372313
  N       3.918835     -0.833265      2.051932
  H       3.686888     -1.580485      1.393177
  H       4.623767     -0.264840      1.577422
  C       1.575643      3.232383     -0.339658
  H       1.653463      4.300374     -0.114960
  H       2.157811      2.676115      0.406120
  H       2.080829      1.868106     -1.917545
  C       2.144296      2.953739     -1.719108
  C       1.337086      3.682488     -2.775262
  O       0.925368      4.818153     -2.669018
  O       1.170714      2.939489     -3.882133
  H       0.681254      3.480702     -4.530982
  N       3.517487      3.469477     -1.784643
  H       4.047100      3.028058     -1.030260
  H       3.955312      3.141554     -2.646725
  C      -2.274629     -0.446628     -3.559477
  H      -2.184968      0.110622     -4.494343
  H      -2.679880     -1.436102     -3.783056
  H      -3.159357     -0.165849     -1.618260
  C      -3.233972      0.268974     -2.629117
  C      -2.921769      1.750348     -2.538432
  O      -2.384777      2.415133     -3.402454
  O      -3.420615      2.278992     -1.406196
  H      -3.230307      3.238094     -1.418532
  N      -4.596385      0.187185     -3.185338
  H      -4.858480     -0.797328     -3.209255
  H      -5.243807      0.625074     -2.529624
43
Coordinates from ORCA-job 3_Cu4_Cys3 E -8719.804150878228
  Cu     -1.022249     -1.518321     -0.823759
  S       0.058754     -0.030591      3.137475
  S      -0.611373     -0.693554     -2.835329
  Cu     -0.954997     -1.115054      1.447176
  Cu     -0.363300      0.839332     -1.220263
  Cu     -0.115523      1.259771      1.361372
  S      -0.214821      2.773482     -0.190843
  C       1.616970     -0.920947      2.767374
  H       1.950623     -1.413962      3.683888
  H       1.427565     -1.696298      2.005749
  H       2.371302      0.463820      1.309701
  C       2.725831     -0.024629      2.240047
  C       3.056772      1.052819      3.252888
  O       3.202533      0.861849      4.441885
  O       3.223075      2.255794      2.672953
  H       3.470017      2.892748      3.373168
  N       3.936294     -0.827995      2.039949
  H       3.704889     -1.569021      1.373805
  H       4.640431     -0.255203      1.569376
  C       1.549475      3.248173     -0.328375
  H       1.614038      4.322559     -0.132725
  H       2.137491      2.718847      0.432378
  H       2.071210      1.850471     -1.872319
  C       2.126766      2.940849     -1.698678
  C       1.320944      3.643067     -2.774712
  O       0.878013      4.767883     -2.684273
  O       1.193695      2.888377     -3.880245
  H       0.703165      3.412611     -4.542159
  N       3.496368      3.466479     -1.769567
  H       4.026156      3.046749     -1.002941
  H       3.939996      3.121337     -2.622035
  C      -2.272838     -0.438899     -3.563324
  H      -2.168061      0.119396     -4.495942
  H      -2.683459     -1.424467     -3.793569
  H      -3.179401     -0.152677     -1.630788
  C      -3.237220      0.281919     -2.642710
  C      -2.917264      1.760739     -2.543729
  O      -2.369872      2.425379     -3.401377
  O      -3.425766      2.286482     -1.414095
  H      -3.229449      3.244693     -1.417134
  N      -4.593227      0.209788     -3.215834
  H      -4.861758     -0.772705     -3.247695
  H      -5.247319      0.648545     -2.567454
43
Coordinates from ORCA-job 3_Cu4_Cys3 E -8719.804254434994
  Cu     -1.025946     -1.524356     -0.822684
  S       0.069058     -0.047649      3.140089
  S      -0.619028     -0.698494     -2.832120
  Cu     -0.947031     -1.127556      1.450930
  Cu     -0.371434      0.834653     -1.215603
  Cu     -0.121724      1.249242      1.368572
  S      -0.231000      2.764522     -0.178160
  C       1.630435     -0.927189      2.762789
  H       1.969390     -1.418928      3.677966
  H       1.443387     -1.703193      2.001719
  H       2.374691      0.456427      1.299768
  C       2.733572     -0.025697      2.231571
  C       3.061027      1.057049      3.239426
  O       3.201355      0.872497      4.430294
  O       3.233769      2.257070      2.654723
  H       3.478532      2.895587      3.354461
  N       3.947795     -0.823726      2.031092
  H       3.719428     -1.564152      1.363278
  H       4.649099     -0.247824      1.560160
  C       1.526100      3.260559     -0.317591
  H       1.575190      4.339270     -0.143850
  H       2.118258      2.754283      0.455372
  H       2.074143      1.840895     -1.832816
  C       2.116576      2.934863     -1.678336
  C       1.311739      3.608676     -2.773219
  O       0.834981      4.720867     -2.699407
  O       1.230943      2.843976     -3.877185
  H       0.740398      3.350474     -4.552655
  N       3.479790      3.476186     -1.750452
  H       4.010544      3.076945     -0.973633
  H       3.931860      3.121461     -2.594558
  C      -2.277014     -0.434440     -3.563719
  H      -2.168804      0.121713     -4.497164
  H      -2.694005     -1.417663     -3.793080
  H      -3.184315     -0.137873     -1.631506
  C      -3.237524      0.293762     -2.645160
  C      -2.907774      1.770757     -2.547887
  O      -2.351483      2.430920     -3.403412
  O      -3.422634      2.300900     -1.422498
  H      -3.220241      3.257783     -1.422598
  N      -4.592054      0.231238     -3.221793
  H      -4.869149     -0.748767     -3.256902
  H      -5.246430      0.674568     -2.576911
43
Coordinates from ORCA-job 3_Cu4_Cys3 E -8719.804373960771
  Cu     -1.031453     -1.531449     -0.813901
  S       0.085595     -0.062797      3.147211
  S      -0.631590     -0.706470     -2.821830
  Cu     -0.936334     -1.139176      1.462284
  Cu     -0.383516      0.829040     -1.206472
  Cu     -0.125771      1.239308      1.380581
  S      -0.250136      2.754409     -0.161246
  C       1.648096     -0.933752      2.758744
  H       1.995504     -1.423878      3.671519
  H       1.460241     -1.710247      1.999019
  H       2.376811      0.449466      1.287510
  C       2.743571     -0.027900      2.218821
  C       3.074063      1.058612      3.221779
  O       3.215721      0.878793      4.413503
  O       3.248791      2.256463      2.633190
  H       3.494452      2.895703      3.331906
  N       3.959385     -0.822239      2.010678
  H       3.728212     -1.561866      1.342940
  H       4.655591     -0.244285      1.534639
  C       1.498653      3.275684     -0.301184
  H       1.529888      4.358223     -0.148886
  H       2.093207      2.793556      0.484988
  H       2.084940      1.836388     -1.783048
  C       2.108089      2.934026     -1.649661
  C       1.306269      3.570598     -2.768125
  O       0.792677      4.668125     -2.718169
  O       1.278246      2.792055     -3.865207
  H       0.788609      3.276204     -4.557686
  N       3.462614      3.496092     -1.720377
  H       3.993493      3.121590     -0.931508
  H       3.927328      3.133155     -2.554028
  C      -2.285227     -0.435183     -3.558896
  H      -2.172568      0.114047     -4.495880
  H      -2.708107     -1.417329     -3.783143
  H      -3.197319     -0.117521     -1.631808
  C      -3.244862      0.305972     -2.649461
  C      -2.903646      1.781618     -2.563406
  O      -2.331909      2.430015     -3.417530
  O      -3.427948      2.325969     -1.448868
  H      -3.216760      3.280591     -1.453040
  N      -4.595282      0.250667     -3.233650
  H      -4.881525     -0.726718     -3.266959
  H      -5.251624      0.704073     -2.598030
43
Coordinates from ORCA-job 3_Cu4_Cys3 E -8719.804508351539
  Cu     -1.036834     -1.539768     -0.810943
  S       0.104824     -0.086878      3.150775
  S      -0.642717     -0.709681     -2.814152
  Cu     -0.921035     -1.159666      1.468812
  Cu     -0.397590      0.823420     -1.194156
  Cu     -0.133353      1.222707      1.390783
  S      -0.277766      2.743073     -0.138878
  C       1.672665     -0.939805      2.744342
  H       2.032695     -1.430751      3.651795
  H       1.487069     -1.714344      1.982050
  H       2.375508      0.457523      1.272709
  C       2.753818     -0.019863      2.199578
  C       3.082321      1.065944      3.204093
  O       3.226050      0.885239      4.395457
  O       3.254547      2.264887      2.616844
  H       3.500132      2.903237      3.316385
  N       3.976697     -0.800345      1.978469
  H       3.748264     -1.536974      1.306336
  H       4.663911     -0.211978      1.501943
  C       1.461976      3.291874     -0.280647
  H       1.472359      4.379157     -0.163301
  H       2.057253      2.845552      0.525680
  H       2.083245      1.814634     -1.709390
  C       2.089615      2.916657     -1.610969
  C       1.294395      3.504327     -2.760036
  O       0.737254      4.581518     -2.743331
  O       1.330830      2.708886     -3.844752
  H       0.846239      3.163676     -4.560445
  N       3.437562      3.494066     -1.688153
  H       3.967605      3.150427     -0.884838
  H       3.913098      3.113058     -2.507522
  C      -2.288789     -0.422539     -3.559907
  H      -2.166692      0.126078     -4.496083
  H      -2.719417     -1.400782     -3.786862
  H      -3.204006     -0.095666     -1.636838
  C      -3.245751      0.327321     -2.654995
  C      -2.892275      1.800618     -2.570936
  O      -2.303966      2.441582     -3.419347
  O      -3.426689      2.353525     -1.465487
  H      -3.207283      3.305990     -1.470154
  N      -4.593931      0.283605     -3.244138
  H      -4.887995     -0.691291     -3.281597
  H      -5.249373      0.741383     -2.610883
43
Coordinates from ORCA-job 3_Cu4_Cys3 E -8719.804612351179
  Cu     -1.046216     -1.545375     -0.790193
  S       0.142053     -0.110363      3.164986
  S      -0.656461     -0.711571     -2.787069
  Cu     -0.899026     -1.177624      1.492902
  Cu     -0.424765      0.823011     -1.163820
  Cu     -0.141934      1.209426      1.416384
  S      -0.323371      2.735937     -0.096170
  C       1.709712     -0.945959      2.720925
  H       2.092321     -1.440989      3.616819
  H       1.516297     -1.715232      1.955220
  H       2.371811      0.474696      1.250035
  C       2.771064     -0.010404      2.164440
  C       3.112698      1.066278      3.175135
  O       3.271107      0.874859      4.362931
  O       3.278797      2.270364      2.596861
  H       3.533175      2.901841      3.299643
  N       3.996127     -0.778041      1.910074
  H       3.759793     -1.507856      1.233122
  H       4.668875     -0.177953      1.427383
  C       1.403830      3.322865     -0.244989
  H       1.384950      4.414456     -0.181612
  H       1.996761      2.931568      0.590784
  H       2.076834      1.791650     -1.589854
  C       2.060969      2.897850     -1.544774
  C       1.281688      3.412211     -2.738517
  O       0.672668      4.460749     -2.777107
  O       1.402096      2.590219     -3.796735
  H       0.929992      3.002648     -4.545701
  N       3.400627      3.493796     -1.628693
  H       3.924958      3.195492     -0.803813
  H       3.894064      3.086065     -2.424309
  C      -2.290414     -0.414314     -3.552972
  H      -2.153029      0.121721     -4.494341
  H      -2.729309     -1.390541     -3.772986
  H      -3.215420     -0.050797     -1.643322
  C      -3.249438      0.357352     -2.668004
  C      -2.885359      1.829300     -2.606434
  O      -2.269331      2.447964     -3.450982
  O      -3.443338      2.409748     -1.527537
  H      -3.214903      3.359422     -1.547490
  N      -4.592947      0.315065     -3.265387
  H      -4.894100     -0.657914     -3.292767
  H      -5.249436      0.788013     -2.644755
43
Coordinates from ORCA-job 3_Cu4_Cys3 E -8719.804524186624
  Cu     -1.070262     -1.560137     -0.754829
  S       0.194353     -0.128918      3.178809
  S      -0.690495     -0.732839     -2.749129
  Cu     -0.875703     -1.195006      1.529820
  Cu     -0.465481      0.809893     -1.131102
  Cu     -0.157284      1.194146      1.440963
  S      -0.384602      2.719411     -0.058967
  C       1.755748     -0.944881      2.675084
  H       2.167784     -1.455309      3.549045
  H       1.547343     -1.698821      1.897573
  H       2.363824      0.523296      1.223670
  C       2.791604      0.014750      2.112520
  C       3.157001      1.064704      3.143819
  O       3.343740      0.842099      4.321798
  O       3.309316      2.283174      2.592819
  H       3.580126      2.897159      3.304988
  N       4.015180     -0.735020      1.801327
  H       3.763746     -1.449379      1.113128
  H       4.667650     -0.116031      1.314412
  C       1.328878      3.350405     -0.207623
  H       1.276566      4.442862     -0.203958
  H       1.907934      3.020918      0.663428
  H       2.058334      1.768847     -1.459240
  C       2.035733      2.876863     -1.462128
  C       1.310842      3.335799     -2.710258
  O       0.666491      4.359270     -2.809739
  O       1.530433      2.501366     -3.741632
  H       1.095282      2.884178     -4.527677
  N       3.377630      3.471448     -1.517426
  H       3.870584      3.205174     -0.662740
  H       3.901270      3.036844     -2.278694
  C      -2.312603     -0.426375     -3.534465
  H      -2.158380      0.083381     -4.487775
  H      -2.766060     -1.400364     -3.733488
  H      -3.229417      0.010290     -1.639817
  C      -3.267343      0.383307     -2.677966
  C      -2.896255      1.854226     -2.671790
  O      -2.250826      2.431525     -3.522305
  O      -3.479694      2.485014     -1.636564
  H      -3.243829      3.430640     -1.695421
  N      -4.612614      0.327150     -3.267794
  H      -4.919138     -0.644312     -3.259407
  H      -5.262935      0.828886     -2.663955
43
Coordinates from ORCA-job 3_Cu4_Cys3 E -8719.804715374024
  Cu     -1.101487     -1.547545     -0.743708
  S       0.221336     -0.128540      3.177665
  S      -0.712740     -0.724871     -2.737083
  Cu     -0.866344     -1.197629      1.540078
  Cu     -0.487288      0.817120     -1.116775
  Cu     -0.161906      1.195247      1.447837
  S      -0.400309      2.727214     -0.044396
  C       1.783509     -0.926161      2.646473
  H       2.209634     -1.446006      3.508130
  H       1.571698     -1.670279      1.859665
  H       2.359282      0.577046      1.217860
  C       2.803769      0.053189      2.089250
  C       3.172839      1.084628      3.138036
  O       3.379524      0.838336      4.307782
  O       3.303009      2.316550      2.611618
  H       3.579734      2.918383      3.332015
  N       4.030136     -0.677857      1.747308
  H       3.777179     -1.383502      1.050570
  H       4.669486     -0.043295      1.263059
  C       1.317463      3.349233     -0.196581
  H       1.267895      4.441141     -0.227482
  H       1.887229      3.046043      0.690090
  H       2.020157      1.725004     -1.409077
  C       2.032255      2.833195     -1.429036
  C       1.346116      3.300115     -2.696103
  O       0.717506      4.331014     -2.814019
  O       1.582763      2.461261     -3.720577
  H       1.171761      2.846539     -4.518107
  N       3.393325      3.385323     -1.465234
  H       3.860116      3.113317     -0.597557
  H       3.917935      2.924199     -2.210193
  C      -2.320425     -0.407532     -3.547068
  H      -2.147108      0.118357     -4.488106
  H      -2.770007     -1.377766     -3.770524
  H      -3.261786      0.000872     -1.657968
  C      -3.289681      0.385411     -2.692124
  C      -2.930406      1.858216     -2.663023
  O      -2.281061      2.449601     -3.501577
  O      -3.526475      2.471784     -1.625085
  H      -3.297709      3.420076     -1.672127
  N      -4.629837      0.325004     -3.295985
  H      -4.928218     -0.648944     -3.298112
  H      -5.288399      0.816143     -2.692498
43
Coordinates from ORCA-job 3_Cu4_Cys3 E -8719.804852686852
  Cu     -1.115332     -1.533448     -0.736453
  S       0.249661     -0.116048      3.170203
  S      -0.724113     -0.709274     -2.729112
  Cu     -0.857286     -1.190909      1.544486
  Cu     -0.506495      0.835347     -1.109236
  Cu     -0.170381      1.211494      1.454949
  S      -0.425023      2.746451     -0.034737
  C       1.804634     -0.897617      2.594673
  H       2.246344     -1.437055      3.436291
  H       1.580070     -1.622819      1.793261
  H       2.349401      0.651999      1.205300
  C       2.813337      0.099986      2.048071
  C       3.199396      1.096345      3.124659
  O       3.443417      0.807703      4.277425
  O       3.292798      2.350408      2.645305
  H       3.581368      2.927506      3.381238
  N       4.032993     -0.615763      1.656451
  H       3.767130     -1.304944      0.948115
  H       4.658204      0.034405      1.174342
  C       1.296734      3.361262     -0.177952
  H       1.247807      4.450023     -0.261334
  H       1.849905      3.102218      0.733010
  H       1.990808      1.677497     -1.315689
  C       2.028877      2.784259     -1.372409
  C       1.376070      3.229162     -2.665717
  O       0.753961      4.258832     -2.820446
  O       1.632231      2.366883     -3.666515
  H       1.234581      2.732965     -4.479905
  N       3.401665      3.308176     -1.394633
  H       3.841982      3.052760     -0.507940
  H       3.933789      2.813033     -2.112184
  C      -2.323048     -0.390385     -3.556748
  H      -2.137796      0.145327     -4.489683
  H      -2.767613     -1.359173     -3.795947
  H      -3.283130     -0.000038     -1.671138
  C      -3.302956      0.390001     -2.703373
  C      -2.952616      1.864410     -2.660973
  O      -2.301023      2.464185     -3.493600
  O      -3.556407      2.467457     -1.621095
  H      -3.332804      3.417831     -1.660578
  N      -4.639781      0.322831     -3.317036
  H      -4.932576     -0.652841     -3.319911
  H      -5.304311      0.809191     -2.716126
43
Coordinates from ORCA-job 3_Cu4_Cys3 E -8719.804889814764
  Cu     -1.131208     -1.548582     -0.728338
  S       0.272038     -0.117473      3.160228
  S      -0.752971     -0.727154     -2.724898
  Cu     -0.848252     -1.202263      1.548952
  Cu     -0.525985      0.825410     -1.117042
  Cu     -0.171996      1.206984      1.453038
  S      -0.443578      2.736807     -0.041851
  C       1.824986     -0.885146      2.559227
  H       2.275834     -1.435715      3.388787
  H       1.596732     -1.598233      1.747987
  H       2.348646      0.693453      1.194652
  C       2.823944      0.126817      2.020596
  C       3.214791      1.103715      3.113562
  O       3.488570      0.792011      4.253720
  O       3.268203      2.370662      2.663886
  H       3.557460      2.936540      3.407418
  N       4.041673     -0.575351      1.601183
  H       3.769398     -1.259006      0.890016
  H       4.654649      0.084822      1.116851
  C       1.279135      3.356073     -0.165118
  H       1.226656      4.443296     -0.264886
  H       1.814748      3.113591      0.760868
  H       1.998241      1.660915     -1.271798
  C       2.040443      2.767581     -1.335869
  C       1.417224      3.205247     -2.646304
  O       0.802770      4.236627     -2.820298
  O       1.688269      2.334842     -3.635403
  H       1.303055      2.695942     -4.457431
  N       3.413988      3.288312     -1.327070
  H       3.831766      3.035158     -0.428741
  H       3.963110      2.791167     -2.030334
  C      -2.352167     -0.405035     -3.551451
  H      -2.165076      0.119149     -4.490395
  H      -2.803906     -1.373365     -3.779650
  H      -3.302259      0.015112     -1.667163
  C      -3.325010      0.392054     -2.704391
  C      -2.963614      1.864583     -2.683537
  O      -2.300935      2.446084     -3.520054
  O      -3.567160      2.489104     -1.656073
  H      -3.335335      3.436741     -1.709454
  N      -4.664022      0.325189     -3.312348
  H      -4.966379     -0.647457     -3.294059
  H      -5.322008      0.830425     -2.719700
43
Coordinates from ORCA-job 3_Cu4_Cys3 E -8719.804967729673
  Cu     -1.163052     -1.546588     -0.694903
  S       0.299081     -0.107601      3.165683
  S      -0.770381     -0.736927     -2.695310
  Cu     -0.852325     -1.200497      1.576770
  Cu     -0.554727      0.824206     -1.095741
  Cu     -0.181659      1.215464      1.472427
  S      -0.477119      2.740530     -0.029004
  C       1.840406     -0.873108      2.533694
  H       2.301116     -1.431410      3.352938
  H       1.596992     -1.580928      1.721382
  H       2.355514      0.701402      1.163061
  C       2.838326      0.134314      1.983447
  C       3.241651      1.109969      3.071470
  O       3.549522      0.794845      4.202058
  O       3.264178      2.380756      2.630408
  H       3.564350      2.944044      3.371205
  N       4.047404     -0.573703      1.551071
  H       3.763602     -1.258271      0.845090
  H       4.656723      0.082362      1.056709
  C       1.238483      3.376354     -0.149608
  H       1.173218      4.459010     -0.284550
  H       1.766714      3.171589      0.789727
  H       1.980598      1.654700     -1.200625
  C       2.023446      2.759481     -1.291213
  C       1.428819      3.163703     -2.626896
  O       0.788756      4.172037     -2.835851
  O       1.765832      2.291259     -3.595577
  H       1.403973      2.630926     -4.436716
  N       3.395466      3.283962     -1.268285
  H       3.798034      3.048228     -0.358161
  H       3.957348      2.774962     -1.952874
  C      -2.354417     -0.409869     -3.548007
  H      -2.151430      0.111690     -4.484910
  H      -2.808853     -1.375667     -3.780699
  H      -3.325150      0.018686     -1.674370
  C      -3.329730      0.394827     -2.711849
  C      -2.954776      1.864481     -2.682028
  O      -2.274474      2.444472     -3.505415
  O      -3.572566      2.489245     -1.662353
  H      -3.335154      3.435955     -1.705603
  N      -4.660905      0.342589     -3.338579
  H      -4.975634     -0.626198     -3.324845
  H      -5.322731      0.854350     -2.755854
43
Coordinates from ORCA-job 3_Cu4_Cys3 E -8719.805001993522
  Cu     -1.139406     -1.528895     -0.715667
  S       0.295507     -0.093434      3.159011
  S      -0.762827     -0.704577     -2.712308
  Cu     -0.837414     -1.183695      1.559299
  Cu     -0.555687      0.849800     -1.108472
  Cu     -0.172527      1.229901      1.462522
  S      -0.474262      2.760489     -0.033312
  C       1.833166     -0.874777      2.538285
  H       2.283908     -1.434564      3.362124
  H       1.587620     -1.583163      1.727388
  H       2.370150      0.682026      1.156702
  C       2.843068      0.118783      1.985363
  C       3.249448      1.102198      3.064686
  O       3.554691      0.797388      4.198858
  O       3.276041      2.368160      2.610176
  H       3.576342      2.938486      3.345163
  N       4.047289     -0.605824      1.567163
  H       3.758645     -1.297245      0.870016
  H       4.663821      0.037930      1.065633
  C       1.238811      3.400958     -0.150450
  H       1.172737      4.483213     -0.291373
  H       1.763770      3.202490      0.791754
  H       1.989449      1.675071     -1.185060
  C       2.032439      2.779325     -1.284028
  C       1.448428      3.164655     -2.629226
  O       0.821403      4.176527     -2.861459
  O       1.780779      2.268626     -3.577436
  H       1.432051      2.596801     -4.428452
  N       3.403948      3.302712     -1.255779
  H       3.804226      3.066994     -0.344794
  H       3.967669      2.795522     -1.939985
  C      -2.357547     -0.401380     -3.553163
  H      -2.171820      0.124946     -4.491307
  H      -2.797174     -1.374545     -3.784024
  H      -3.324715      0.006892     -1.674963
  C      -3.341632      0.387331     -2.710933
  C      -2.984005      1.862154     -2.677325
  O      -2.306306      2.455356     -3.491770
  O      -3.615691      2.475475     -1.659516
  H      -3.392215      3.425070     -1.699122
  N      -4.672016      0.321603     -3.333680
  H      -4.976409     -0.650539     -3.323054
  H      -5.339282      0.825391     -2.750171
43
Coordinates from ORCA-job 3_Cu4_Cys3 E -8719.805070022763
  Cu     -1.137715     -1.529146     -0.727855
  S       0.305001     -0.105916      3.149967
  S      -0.771008     -0.696838     -2.721143
  Cu     -0.823476     -1.194283      1.549088
  Cu     -0.557292      0.850278     -1.111617
  Cu     -0.173293      1.217910      1.455048
  S      -0.479538      2.757189     -0.029658
  C       1.846951     -0.876214      2.528199
  H       2.302099     -1.436971      3.348884
  H       1.607608     -1.583154      1.713896
  H       2.364659      0.693370      1.154267
  C       2.845323      0.131002      1.979255
  C       3.243272      1.114921      3.062074
  O       3.548608      0.809806      4.196191
  O       3.260921      2.383012      2.610303
  H       3.556825      2.956098      3.346216
  N       4.057360     -0.578329      1.556696
  H       3.775807     -1.268919      0.855826
  H       4.666890      0.074772      1.058706
  C       1.233791      3.397984     -0.149665
  H       1.169473      4.477601     -0.310323
  H       1.752854      3.215228      0.798780
  H       1.984478      1.657395     -1.158423
  C       2.033078      2.760753     -1.268810
  C       1.462918      3.135997     -2.622663
  O       0.825721      4.140607     -2.862972
  O       1.818157      2.246402     -3.567489
  H       1.476887      2.574410     -4.422212
  N       3.408026      3.275504     -1.235723
  H       3.803137      3.038417     -0.322922
  H       3.970419      2.761968     -1.916365
  C      -2.367153     -0.387299     -3.557159
  H      -2.181837      0.144916     -4.492240
  H      -2.806354     -1.359328     -3.793161
  H      -3.330917      0.011081     -1.676559
  C      -3.351774      0.395263     -2.711056
  C      -2.998067      1.869626     -2.676011
  O      -2.325854      2.463358     -3.494529
  O      -3.623769      2.480353     -1.653376
  H      -3.400279      3.430118     -1.692621
  N      -4.684272      0.326377     -3.329564
  H      -4.982077     -0.647910     -3.323133
  H      -5.351117      0.822227     -2.738832
43
Coordinates from ORCA-job 3_Cu4_Cys3 E -8719.805126368408
  Cu     -1.133670     -1.536441     -0.740372
  S       0.296410     -0.112611      3.141599
  S      -0.771453     -0.699184     -2.733582
  Cu     -0.824519     -1.201418      1.537418
  Cu     -0.550867      0.845872     -1.125498
  Cu     -0.171597      1.209049      1.442407
  S      -0.481478      2.752215     -0.040477
  C       1.843173     -0.882576      2.533227
  H       2.292513     -1.442107      3.357831
  H       1.612181     -1.592465      1.718872
  H       2.365043      0.680469      1.156510
  C       2.843548      0.124026      1.986542
  C       3.233425      1.115616      3.064690
  O       3.533720      0.819019      4.202439
  O       3.250295      2.381051      2.603763
  H       3.541733      2.960691      3.336415
  N       4.058992     -0.585331      1.573929
  H       3.782762     -1.277770      0.872822
  H       4.671229      0.066830      1.077973
  C       1.228315      3.400848     -0.162049
  H       1.160092      4.479197     -0.329862
  H       1.745713      3.225578      0.788736
  H       1.995545      1.662699     -1.164881
  C       2.036700      2.766363     -1.276223
  C       1.470654      3.135619     -2.633139
  O       0.817398      4.129970     -2.873761
  O       1.847975      2.257117     -3.579637
  H       1.505600      2.583658     -4.434858
  N       3.407974      3.290335     -1.238156
  H       3.804638      3.047891     -0.327406
  H       3.972983      2.785160     -1.922994
  C      -2.373481     -0.384953     -3.557765
  H      -2.193708      0.150118     -4.492311
  H      -2.814622     -1.356096     -3.793852
  H      -3.328400      0.007990     -1.670962
  C      -3.352227      0.396065     -2.703822
  C      -2.996355      1.869555     -2.664420
  O      -2.333987      2.465568     -3.489536
  O      -3.608048      2.475546     -1.630116
  H      -3.383271      3.425591     -1.665493
  N      -4.688449      0.331583     -3.315700
  H      -4.986051     -0.642854     -3.314210
  H      -5.351958      0.822153     -2.716778
43
Coordinates from ORCA-job 3_Cu4_Cys3 E -8719.805245158486
  Cu     -1.131111     -1.539634     -0.755847
  S       0.293315     -0.124808      3.129466
  S      -0.770070     -0.690367     -2.746158
  Cu     -0.822684     -1.211241      1.522416
  Cu     -0.553701      0.850605     -1.136404
  Cu     -0.181515      1.201932      1.434563
  S      -0.490102      2.754337     -0.044825
  C       1.847963     -0.879663      2.521550
  H       2.302544     -1.435426      3.345757
  H       1.624538     -1.592444      1.707693
  H       2.355303      0.687890      1.145791
  C       2.840067      0.134865      1.974683
  C       3.222250      1.128726      3.053661
  O       3.526036      0.833018      4.190608
  O       3.229561      2.394903      2.595343
  H       3.517451      2.974122      3.329396
  N       4.060635     -0.563639      1.559592
  H       3.789874     -1.256183      0.856521
  H       4.667674      0.094723      1.065387
  C       1.218963      3.403434     -0.166622
  H       1.150785      4.478841     -0.351412
  H       1.729956      3.242494      0.789997
  H       1.992440      1.651373     -1.142791
  C       2.037765      2.754004     -1.265048
  C       1.490252      3.107517     -2.633314
  O       0.834936      4.094996     -2.895680
  O       1.887950      2.220326     -3.563518
  H       1.553621      2.531533     -4.427504
  N       3.409762      3.275197     -1.215849
  H       3.798991      3.029817     -0.302602
  H       3.978414      2.769738     -1.897585
  C      -2.375578     -0.370885     -3.562610
  H      -2.198793      0.172966     -4.492484
  H      -2.814953     -1.341043     -3.806341
  H      -3.329410      0.000327     -1.670215
  C      -3.353370      0.400399     -2.698366
  C      -3.001733      1.874901     -2.642519
  O      -2.351901      2.483769     -3.468897
  O      -3.601167      2.465403     -1.591972
  H      -3.378889      3.416651     -1.617034
  N      -4.691362      0.340578     -3.309136
  H      -4.985802     -0.634794     -3.319398
  H      -5.354431      0.820380     -2.700981
43
Coordinates from ORCA-job 3_Cu4_Cys3 E -8719.805332551628
  Cu     -1.134014     -1.534824     -0.761976
  S       0.301885     -0.126924      3.120137
  S      -0.773854     -0.677532     -2.751473
  Cu     -0.820215     -1.209273      1.515756
  Cu     -0.559835      0.861555     -1.144494
  Cu     -0.184196      1.201795      1.428577
  S      -0.504338      2.763977     -0.047300
  C       1.854544     -0.873048      2.496648
  H       2.318340     -1.430366      3.314742
  H       1.627368     -1.583834      1.682303
  H       2.344630      0.702753      1.124782
  C       2.839583      0.146673      1.945629
  C       3.228806      1.135257      3.027011
  O       3.549354      0.832388      4.157380
  O       3.220467      2.405026      2.580119
  H       3.510288      2.978969      3.317048
  N       4.057059     -0.545970      1.513679
  H       3.781126     -1.234505      0.808638
  H       4.657508      0.117261      1.017866
  C       1.199018      3.425254     -0.168634
  H       1.123550      4.492568     -0.391936
  H       1.696516      3.302488      0.800386
  H       1.993877      1.646327     -1.079444
  C       2.042305      2.745667     -1.229656
  C       1.525010      3.060419     -2.618485
  O       0.861382      4.030069     -2.922045
  O       1.959080      2.155620     -3.515164
  H       1.637290      2.435271     -4.394311
  N       3.412525      3.268981     -1.160260
  H       3.783242      3.034453     -0.236281
  H       3.995220      2.756155     -1.824561
  C      -2.381222     -0.359294     -3.565008
  H      -2.206933      0.191444     -4.491157
  H      -2.816295     -1.329746     -3.815305
  H      -3.337546     -0.005491     -1.669380
  C      -3.361388      0.402126     -2.694578
  C      -3.016960      1.878314     -2.627414
  O      -2.371256      2.496713     -3.450149
  O      -3.619982      2.458421     -1.573361
  H      -3.403906      3.411050     -1.593075
  N      -4.699146      0.342348     -3.307214
  H      -4.990188     -0.633905     -3.325084
  H      -5.364227      0.815004     -2.695641
43
Coordinates from ORCA-job 3_Cu4_Cys3 E -8719.805411413829
  Cu     -1.139207     -1.529205     -0.762880
  S       0.317176     -0.132121      3.113054
  S      -0.779911     -0.662620     -2.751326
  Cu     -0.815206     -1.209903      1.513870
  Cu     -0.569198      0.872548     -1.145741
  Cu     -0.189322      1.200016      1.428606
  S      -0.519830      2.773201     -0.042881
  C       1.868308     -0.866190      2.470648
  H       2.345162     -1.421655      3.282681
  H       1.635301     -1.575748      1.657465
  H       2.337634      0.720526      1.101754
  C       2.843457      0.160330      1.913208
  C       3.242463      1.142173      2.997754
  O       3.578555      0.830558      4.121232
  O       3.224950      2.415081      2.562686
  H       3.518093      2.982048      3.303426
  N       4.057321     -0.524925      1.461312
  H       3.775141     -1.209508      0.754784
  H       4.649506      0.144075      0.963357
  C       1.180284      3.442001     -0.159126
  H       1.100426      4.502531     -0.410239
  H       1.663410      3.347277      0.820112
  H       1.994172      1.641944     -1.009784
  C       2.044400      2.737204     -1.186595
  C       1.549711      3.012595     -2.591815
  O       0.884045      3.967178     -2.934493
  O       2.006848      2.085605     -3.453664
  H       1.692712      2.331357     -4.345302
  N       3.412295      3.263861     -1.101154
  H       3.764485      3.044775     -0.165903
  H       4.009621      2.742107     -1.745320
  C      -2.388962     -0.353884     -3.564706
  H      -2.217636      0.194162     -4.492914
  H      -2.820248     -1.326887     -3.811646
  H      -3.349158      0.000269     -1.670404
  C      -3.371675      0.406625     -2.696226
  C      -3.030228      1.883755     -2.631608
  O      -2.381374      2.501338     -3.452034
  O      -3.641727      2.466638     -1.584666
  H      -3.427395      3.419067     -1.608215
  N      -4.707282      0.344648     -3.313474
  H      -4.997668     -0.631783     -3.330807
  H      -5.374975      0.818567     -2.705716
43
Coordinates from ORCA-job 3_Cu4_Cys3 E -8719.805441772298
  Cu     -1.142488     -1.522525     -0.769347
  S       0.323172     -0.131127      3.103262
  S      -0.783821     -0.649414     -2.758023
  Cu     -0.815637     -1.205247      1.507312
  Cu     -0.572895      0.881998     -1.154417
  Cu     -0.191039      1.199740      1.418943
  S      -0.529840      2.782308     -0.048714
  C       1.871498     -0.861498      2.450742
  H       2.354202     -1.417520      3.258964
  H       1.635360     -1.569762      1.637389
  H       2.326746      0.732209      1.086309
  C       2.841105      0.168975      1.890102
  C       3.248405      1.146511      2.975316
  O       3.595225      0.830301      4.094143
  O       3.223623      2.421449      2.546284
  H       3.519791      2.986105      3.287521
  N       4.051230     -0.512538      1.423413
  H       3.763748     -1.192447      0.714430
  H       4.639071      0.160165      0.925188
  C       1.166255      3.459527     -0.163011
  H       1.082589      4.511865     -0.444609
  H       1.635635      3.395083      0.825040
  H       1.992944      1.640777     -0.960548
  C       2.049694      2.732507     -1.157396
  C       1.583777      2.980257     -2.577349
  O       0.910876      3.917948     -2.950526
  O       2.076602      2.047046     -3.413078
  H       1.778643      2.271042     -4.315705
  N       3.416700      3.257748     -1.052287
  H       3.750786      3.045551     -0.108672
  H       4.024868      2.729205     -1.680728
  C      -2.396938     -0.348016     -3.566241
  H      -2.231449      0.202672     -4.493884
  H      -2.824184     -1.322626     -3.813623
  H      -3.354381     -0.004283     -1.668115
  C      -3.379892      0.405652     -2.692363
  C      -3.045576      1.884335     -2.621627
  O      -2.400279      2.508946     -3.439415
  O      -3.661106      2.459547     -1.572964
  H      -3.452802      3.413336     -1.593307
  N      -4.716951      0.341094     -3.306873
  H      -5.003458     -0.636352     -3.328845
  H      -5.385333      0.809092     -2.695379
43
Coordinates from ORCA-job 3_Cu4_Cys3 E -8719.805281548606
  Cu     -1.165249     -1.488166     -0.765960
  S       0.334612     -0.131706      3.098679
  S      -0.794354     -0.603709     -2.758448
  Cu     -0.831839     -1.192676      1.511732
  Cu     -0.579369      0.901915     -1.146195
  Cu     -0.190778      1.193733      1.414271
  S      -0.517033      2.801198     -0.040542
  C       1.884782     -0.861237      2.451033
  H       2.369034     -1.407006      3.265563
  H       1.647523     -1.568059      1.637925
  H       2.328911      0.754873      1.102030
  C       2.846960      0.179386      1.893757
  C       3.273118      1.145176      2.982167
  O       3.602109      0.823769      4.104953
  O       3.291810      2.416858      2.539936
  H       3.596003      2.985277      3.276295
  N       4.052629     -0.498330      1.407752
  H       3.758750     -1.162977      0.686516
  H       4.642530      0.181387      0.921650
  C       1.190885      3.454345     -0.137655
  H       1.119229      4.514796     -0.390421
  H       1.649393      3.358218      0.853077
  H       1.991424      1.639548     -0.952650
  C       2.064361      2.730272     -1.140687
  C       1.590643      2.993073     -2.557240
  O       0.923175      3.938857     -2.915722
  O       2.082310      2.068485     -3.404240
  H       1.793985      2.304333     -4.306325
  N       3.441165      3.228823     -1.033698
  H       3.759182      3.021428     -0.083327
  H       4.048089      2.681221     -1.646871
  C      -2.415963     -0.360417     -3.565935
  H      -2.269932      0.166348     -4.511022
  H      -2.829325     -1.348071     -3.781048
  H      -3.375231      0.006614     -1.676011
  C      -3.407215      0.397451     -2.707231
  C      -3.084374      1.877759     -2.660752
  O      -2.429662      2.495384     -3.471883
  O      -3.724223      2.464769     -1.635348
  H      -3.519292      3.417844     -1.669226
  N      -4.739082      0.311442     -3.324522
  H      -5.018253     -0.668088     -3.338079
  H      -5.416967      0.785495     -2.728986
43
Coordinates from ORCA-job 3_Cu4_Cys3 E -8719.805508563348
  Cu     -1.151052     -1.508103     -0.778679
  S       0.321483     -0.135768      3.093829
  S      -0.786756     -0.625414     -2.767923
  Cu     -0.823962     -1.204134      1.499114
  Cu     -0.577342      0.892676     -1.157487
  Cu     -0.195603      1.193026      1.407539
  S      -0.528505      2.791008     -0.048187
  C       1.875768     -0.861895      2.450741
  H       2.358406     -1.409385      3.264664
  H       1.644530     -1.573342      1.639030
  H       2.322983      0.739865      1.091832
  C       2.839946      0.173848      1.891460
  C       3.252001      1.149077      2.976738
  O       3.577530      0.834853      4.102343
  O       3.261430      2.420485      2.534756
  H       3.562549      2.988221      3.272127
  N       4.051458     -0.502796      1.418924
  H       3.764577     -1.174734      0.701957
  H       4.640597      0.174995      0.929073
  C       1.173100      3.458416     -0.157175
  H       1.095081      4.512504     -0.434152
  H       1.636157      3.387407      0.833518
  H       1.985669      1.637010     -0.958509
  C       2.054815      2.728673     -1.150594
  C       1.600095      2.985160     -2.573644
  O       0.924708      3.921467     -2.944792
  O       2.110660      2.064273     -3.412990
  H       1.830647      2.299229     -4.318622
  N       3.427299      3.237079     -1.036615
  H       3.748688      3.026225     -0.088347
  H       4.035043      2.696581     -1.655160
  C      -2.408461     -0.349601     -3.567215
  H      -2.256508      0.192575     -4.502405
  H      -2.829153     -1.330453     -3.800057
  H      -3.359695     -0.002189     -1.668240
  C      -3.393036      0.402122     -2.694382
  C      -3.068403      1.882398     -2.631214
  O      -2.426520      2.507877     -3.450153
  O      -3.688022      2.457719     -1.585140
  H      -3.484321      3.412416     -1.609311
  N      -4.731288      0.325017     -3.303213
  H      -5.010093     -0.654552     -3.323957
  H      -5.402028      0.789801     -2.692173
43
Coordinates from ORCA-job 3_Cu4_Cys3 E -8719.805605636582
  Cu     -1.151147     -1.508936     -0.788415
  S       0.320396     -0.137784      3.085236
  S      -0.789344     -0.625147     -2.777774
  Cu     -0.822809     -1.207395      1.489408
  Cu     -0.580761      0.894616     -1.166620
  Cu     -0.194384      1.192038      1.399574
  S      -0.533177      2.790538     -0.051493
  C       1.877874     -0.859590      2.444713
  H       2.359872     -1.407781      3.258461
  H       1.650506     -1.571106      1.631737
  H       2.322608      0.742867      1.087440
  C       2.840267      0.178494      1.887897
  C       3.246769      1.155131      2.974175
  O       3.567016      0.842663      4.101740
  O       3.258333      2.426293      2.531254
  H       3.558946      2.994116      3.268672
  N       4.055276     -0.493841      1.417847
  H       3.772037     -1.165640      0.699304
  H       4.643284      0.186348      0.929922
  C       1.166492      3.461964     -0.162881
  H       1.087330      4.511798     -0.455597
  H       1.627310      3.407005      0.829842
  H       1.978827      1.631407     -0.946087
  C       2.052332      2.721926     -1.145138
  C       1.609116      2.970413     -2.573110
  O       0.930500      3.900708     -2.954482
  O       2.131861      2.049407     -3.404338
  H       1.859417      2.281467     -4.313150
  N       3.425579      3.227106     -1.026901
  H       3.742467      3.021290     -0.076031
  H       4.033670      2.680871     -1.640030
  C      -2.411652     -0.341459     -3.572902
  H      -2.259957      0.209174     -4.503165
  H      -2.832458     -1.320245     -3.814415
  H      -3.359921     -0.009267     -1.669842
  C      -3.395252      0.402902     -2.692808
  C      -3.070546      1.882917     -2.619154
  O      -2.435354      2.515065     -3.438983
  O      -3.679231      2.449168     -1.561396
  H      -3.475649      3.404262     -1.578413
  N      -4.735030      0.328822     -3.299041
  H      -5.012559     -0.650971     -3.325473
  H      -5.404382      0.788022     -2.682272
43
Coordinates from ORCA-job 3_Cu4_Cys3 E -8719.805689328132
  Cu     -1.143840     -1.504273     -0.806820
  S       0.310929     -0.135404      3.073146
  S      -0.786240     -0.615782     -2.795690
  Cu     -0.825005     -1.207237      1.472390
  Cu     -0.583588      0.903437     -1.178977
  Cu     -0.197494      1.195977      1.387352
  S      -0.537471      2.795077     -0.054890
  C       1.873250     -0.854753      2.440596
  H       2.352402     -1.400782      3.257328
  H       1.650509     -1.569401      1.629022
  H       2.319720      0.743014      1.079724
  C       2.835660      0.182311      1.883885
  C       3.238411      1.164266      2.966976
  O       3.538949      0.859780      4.102036
  O       3.274136      2.430879      2.511667
  H       3.577896      3.001036      3.246084
  N       4.054257     -0.488732      1.420476
  H       3.775010     -1.161713      0.701499
  H       4.643041      0.191747      0.933869
  C       1.162805      3.465052     -0.165371
  H       1.085823      4.511731     -0.470160
  H       1.620944      3.421289      0.829098
  H       1.967546      1.625437     -0.937572
  C       2.049978      2.715273     -1.139030
  C       1.621791      2.961677     -2.572062
  O       0.938122      3.885210     -2.962203
  O       2.163043      2.046043     -3.397155
  H       1.903770      2.280048     -4.309484
  N       3.426171      3.211035     -1.014954
  H       3.736760      3.009956     -0.060997
  H       4.032560      2.656119     -1.621941
  C      -2.413963     -0.332917     -3.580360
  H      -2.269422      0.225975     -4.506823
  H      -2.830916     -1.311902     -3.827988
  H      -3.356300     -0.022695     -1.671041
  C      -3.397268      0.399798     -2.689681
  C      -3.076439      1.880113     -2.602389
  O      -2.452283      2.523327     -3.422654
  O      -3.674485      2.432537     -1.530715
  H      -3.474588      3.388863     -1.538459
  N      -4.739420      0.326433     -3.290381
  H      -5.012808     -0.654303     -3.324922
  H      -5.407480      0.776088     -2.665114
43
Coordinates from ORCA-job 3_Cu4_Cys3 E -8719.805761509955
  Cu     -1.143711     -1.499197     -0.819365
  S       0.310729     -0.136800      3.062359
  S      -0.791740     -0.608478     -2.809511
  Cu     -0.825571     -1.209534      1.460758
  Cu     -0.590148      0.909003     -1.188494
  Cu     -0.200204      1.195782      1.378942
  S      -0.543301      2.795497     -0.055118
  C       1.877777     -0.849240      2.432996
  H       2.357284     -1.393824      3.250416
  H       1.658264     -1.564519      1.621257
  H       2.321147      0.750947      1.073599
  C       2.837382      0.190425      1.877543
  C       3.241195      1.172727      2.960280
  O       3.525181      0.871242      4.100360
  O       3.302593      2.435690      2.497237
  H       3.610931      3.004945      3.230556
  N       4.057952     -0.477069      1.412985
  H       3.779967     -1.148915      0.692445
  H       4.644991      0.205898      0.927696
  C       1.156927      3.466484     -0.159812
  H       1.081334      4.511014     -0.472628
  H       1.609440      3.430809      0.837543
  H       1.958512      1.620365     -0.918246
  C       2.048473      2.709126     -1.123460
  C       1.632680      2.949842     -2.561423
  O       0.947613      3.868520     -2.961378
  O       2.186610      2.035217     -3.378525
  H       1.934927      2.266705     -4.293769
  N       3.426821      3.196441     -0.991450
  H       3.727761      3.002199     -0.032987
  H       4.034458      2.632647     -1.588830
  C      -2.423826     -0.331519     -3.586480
  H      -2.285757      0.228262     -4.513420
  H      -2.838237     -1.311966     -3.832784
  H      -3.359744     -0.026140     -1.673971
  C      -3.405862      0.398212     -2.691678
  C      -3.084034      1.878359     -2.603911
  O      -2.461277      2.521981     -3.424823
  O      -3.678228      2.430271     -1.529753
  H      -3.477694      3.386452     -1.537139
  N      -4.749315      0.324593     -3.287997
  H      -5.022142     -0.656323     -3.322325
  H      -5.415688      0.773500     -2.660382
43
Coordinates from ORCA-job 3_Cu4_Cys3 E -8719.805811709204
  Cu     -1.146826     -1.491126     -0.824881
  S       0.310048     -0.134646      3.057095
  S      -0.795191     -0.601309     -2.817039
  Cu     -0.830024     -1.208438      1.456198
  Cu     -0.593704      0.913215     -1.192001
  Cu     -0.202689      1.197181      1.374974
  S      -0.545611      2.796350     -0.054086
  C       1.879570     -0.844062      2.431379
  H       2.358868     -1.386367      3.250445
  H       1.662114     -1.561090      1.620808
  H       2.319944      0.755239      1.070143
  C       2.837146      0.196308      1.874180
  C       3.245133      1.181483      2.952413
  O       3.517047      0.886369      4.097043
  O       3.327619      2.439384      2.477527
  H       3.640064      3.011575      3.206921
  N       4.057761     -0.470783      1.408103
  H       3.779185     -1.143948      0.688982
  H       4.643033      0.212256      0.920742
  C       1.155856      3.464723     -0.153962
  H       1.083150      4.509423     -0.467026
  H       1.604352      3.428383      0.845220
  H       1.949568      1.616129     -0.911863
  C       2.048739      2.704626     -1.113675
  C       1.642744      2.948790     -2.553988
  O       0.955886      3.865146     -2.956214
  O       2.208943      2.039650     -3.369265
  H       1.964733      2.272550     -4.286161
  N       3.430013      3.180621     -0.972009
  H       3.722732      2.981692     -0.011890
  H       4.037241      2.613832     -1.566958
  C      -2.429812     -0.331354     -3.591404
  H      -2.296484      0.228569     -4.519002
  H      -2.840797     -1.313551     -3.836231
  H      -3.364152     -0.031534     -1.677929
  C      -3.412753      0.395107     -2.694527
  C      -3.093067      1.875536     -2.603637
  O      -2.472189      2.522793     -3.422545
  O      -3.687885      2.423259     -1.527710
  H      -3.488888      3.379748     -1.532316
  N      -4.756054      0.320762     -3.290092
  H      -5.027804     -0.660385     -3.326799
  H      -5.423086      0.767532     -2.661655
43
Coordinates from ORCA-job 3_Cu4_Cys3 E -8719.805809843490
  Cu     -1.144588     -1.482943     -0.831304
  S       0.309072     -0.131432      3.052969
  S      -0.797376     -0.592866     -2.824751
  Cu     -0.831756     -1.205894      1.451047
  Cu     -0.595428      0.918617     -1.195991
  Cu     -0.206378      1.200256      1.371577
  S      -0.551308      2.798144     -0.053678
  C       1.879264     -0.840530      2.429488
  H       2.360020     -1.379305      3.250090
  H       1.661235     -1.560950      1.622138
  H       2.317695      0.754107      1.061926
  C       2.835887      0.197447      1.866750
  C       3.250664      1.185795      2.939277
  O       3.508364      0.897442      4.088824
  O       3.360252      2.437258      2.452352
  H       3.678058      3.010863      3.178710
  N       4.054829     -0.472034      1.398800
  H       3.773640     -1.148033      0.683329
  H       4.638359      0.209060      0.906561
  C       1.149470      3.469098     -0.148423
  H       1.077055      4.512983     -0.464237
  H       1.591815      3.435910      0.853674
  H       1.944496      1.618839     -0.898845
  C       2.049483      2.706940     -1.099957
  C       1.655721      2.949005     -2.544417
  O       0.967918      3.861468     -2.953588
  O       2.233787      2.042231     -3.354032
  H       1.995549      2.272242     -4.273317
  N       3.431007      3.177065     -0.943947
  H       3.712978      2.972228      0.018317
  H       4.042174      2.610938     -1.535497
  C      -2.436568     -0.334354     -3.593588
  H      -2.310191      0.221923     -4.524397
  H      -2.844067     -1.319516     -3.831840
  H      -3.365104     -0.032385     -1.678231
  C      -3.418442      0.391870     -2.695542
  C      -3.101231      1.872794     -2.609705
  O      -2.482971      2.518603     -3.431228
  O      -3.695567      2.422477     -1.534705
  H      -3.497619      3.379100     -1.542287
  N      -4.763235      0.313438     -3.286804
  H      -5.033090     -0.668338     -3.320861
  H      -5.429401      0.760074     -2.657344
43
Coordinates from ORCA-job 3_Cu4_Cys3 E -8719.805827726224
  Cu     -1.137968     -1.480887     -0.842233
  S       0.304471     -0.134391      3.048008
  S      -0.796180     -0.585535     -2.834332
  Cu     -0.829376     -1.209675      1.441602
  Cu     -0.594523      0.921030     -1.201556
  Cu     -0.208609      1.197840      1.365958
  S      -0.552726      2.797119     -0.056003
  C       1.877990     -0.841696      2.431832
  H       2.359017     -1.374567      3.256118
  H       1.664176     -1.567366      1.628111
  H       2.312161      0.746458      1.056024
  C       2.831933      0.195890      1.864043
  C       3.245461      1.191920      2.929597
  O       3.493123      0.914320      4.083926
  O       3.367559      2.437237      2.429330
  H       3.684595      3.017053      3.150957
  N       4.052863     -0.472626      1.399624
  H       3.773629     -1.154666      0.689164
  H       4.633638      0.207097      0.902246
  C       1.147542      3.469945     -0.148611
  H       1.075145      4.513436     -0.465741
  H       1.586507      3.438228      0.854995
  H       1.944570      1.619234     -0.895708
  C       2.052438      2.707426     -1.095362
  C       1.667059      2.948764     -2.541963
  O       0.976355      3.857238     -2.954910
  O       2.256196      2.045622     -3.347881
  H       2.023376      2.273627     -4.268989
  N       3.433330      3.175279     -0.929326
  H       3.710129      2.961012      0.032477
  H       4.047011      2.614122     -1.523066
  C      -2.439824     -0.331013     -3.595612
  H      -2.319185      0.225803     -4.526836
  H      -2.845443     -1.317362     -3.832024
  H      -3.360805     -0.033662     -1.676100
  C      -3.419596      0.391829     -2.692600
  C      -3.107453      1.873811     -2.606513
  O      -2.493643      2.522677     -3.428964
  O      -3.701487      2.420447     -1.529872
  H      -3.506840      3.377724     -1.537216
  N      -4.766950      0.310110     -3.278109
  H      -5.033681     -0.672514     -3.312672
  H      -5.431511      0.753294     -2.644500
43
Coordinates from ORCA-job 3_Cu4_Cys3 E -8719.805845557290
  Cu     -1.129072     -1.478695     -0.853358
  S       0.299103     -0.135626      3.044002
  S      -0.795110     -0.578139     -2.843666
  Cu     -0.825951     -1.211066      1.431961
  Cu     -0.592151      0.924206     -1.208695
  Cu     -0.208786      1.197209      1.360025
  S      -0.552710      2.797494     -0.061495
  C       1.874251     -0.845142      2.435870
  H       2.354273     -1.372907      3.263971
  H       1.663904     -1.575620      1.635581
  H       2.306572      0.737034      1.053473
  C       2.827493      0.190820      1.863977
  C       3.240086      1.192071      2.924792
  O       3.477936      0.922509      4.083015
  O       3.373855      2.432570      2.414921
  H       3.690263      3.017014      3.133123
  N       4.049372     -0.478114      1.402666
  H       3.771121     -1.165223      0.696776
  H       4.628465      0.199635      0.900613
  C       1.145549      3.475544     -0.154957
  H       1.070675      4.516978     -0.478160
  H       1.581255      3.451134      0.850218
  H       1.950096      1.623782     -0.892137
  C       2.057452      2.711700     -1.094197
  C       1.679129      2.947881     -2.543291
  O       0.984258      3.850815     -2.961449
  O       2.279955      2.048187     -3.344442
  H       2.051662      2.273040     -4.267420
  N       3.436021      3.182934     -0.920417
  H       3.710031      2.960829      0.040348
  H       4.053561      2.628766     -1.516751
  C      -2.442769     -0.326327     -3.597615
  H      -2.327146      0.233038     -4.527900
  H      -2.846480     -1.313279     -3.834567
  H      -3.356260     -0.036131     -1.673155
  C      -3.420733      0.390883     -2.688642
  C      -3.115229      1.874059     -2.601269
  O      -2.508162      2.527068     -3.425542
  O      -3.706509      2.415932     -1.520830
  H      -3.516299      3.374147     -1.527420
  N      -4.770996      0.304615     -3.267859
  H      -5.033417     -0.679126     -3.303300
  H      -5.434085      0.743136     -2.629485
43
Coordinates from ORCA-job 3_Cu4_Cys3 E -8719.805893947154
  Cu     -1.124528     -1.478253     -0.863986
  S       0.294524     -0.139627      3.039321
  S      -0.796095     -0.572514     -2.852353
  Cu     -0.822396     -1.215871      1.421909
  Cu     -0.590203      0.926309     -1.215570
  Cu     -0.208563      1.194897      1.354701
  S      -0.550596      2.797367     -0.066558
  C       1.873725     -0.845542      2.437331
  H       2.354259     -1.367233      3.268884
  H       1.668577     -1.580635      1.640115
  H       2.300358      0.733487      1.050299
  C       2.823414      0.192206      1.862805
  C       3.230712      1.198771      2.920715
  O       3.460578      0.936189      4.082101
  O       3.370275      2.435827      2.403929
  H       3.683951      3.024370      3.119761
  N       4.048927     -0.472177      1.404867
  H       3.774706     -1.164036      0.702108
  H       4.624730      0.206317      0.900064
  C       1.147364      3.476397     -0.160852
  H       1.072066      4.515647     -0.490777
  H       1.580734      3.459002      0.845404
  H       1.952278      1.620698     -0.889052
  C       2.062589      2.707937     -1.093535
  C       1.692174      2.940825     -2.545138
  O       0.997001      3.840826     -2.968914
  O       2.300056      2.041375     -3.341239
  H       2.077228      2.264319     -4.266042
  N       3.440728      3.178009     -0.914193
  H       3.712346      2.951212      0.046126
  H       4.059450      2.626508     -1.511737
  C      -2.445140     -0.316375     -3.602243
  H      -2.330866      0.251496     -4.527479
  H      -2.847282     -1.301878     -3.847842
  H      -3.357668     -0.044893     -1.674099
  C      -3.423876      0.390279     -2.685991
  C      -3.123472      1.873757     -2.586668
  O      -2.522095      2.535743     -3.408219
  O      -3.712118      2.404505     -1.499203
  H      -3.525897      3.363650     -1.498827
  N      -4.774923      0.304542     -3.264382
  H      -5.034292     -0.679732     -3.306846
  H      -5.438266      0.735931     -2.621383
43
Coordinates from ORCA-job 3_Cu4_Cys3 E -8719.805965638403
  Cu     -1.111489     -1.475459     -0.888638
  S       0.281565     -0.143656      3.028450
  S      -0.794686     -0.559640     -2.873178
  Cu     -0.816508     -1.221141      1.399122
  Cu     -0.584497      0.932217     -1.231716
  Cu     -0.210948      1.193625      1.341620
  S      -0.544885      2.799321     -0.079485
  C       1.868181     -0.844747      2.439891
  H       2.345267     -1.360294      3.277142
  H       1.672645     -1.584172      1.644618
  H       2.293137      0.733566      1.052377
  C       2.815869      0.195991      1.867698
  C       3.215068      1.206672      2.924937
  O       3.426129      0.951801      4.091492
  O       3.372581      2.438349      2.400028
  H       3.682719      3.030594      3.114177
  N       4.046884     -0.462461      1.416076
  H       3.779462     -1.158232      0.714625
  H       4.620590      0.217850      0.911368
  C       1.153553      3.477159     -0.173260
  H       1.079426      4.514053     -0.510905
  H       1.584240      3.467099      0.834182
  H       1.955543      1.615791     -0.890837
  C       2.070774      2.701943     -1.098723
  C       1.708917      2.931221     -2.552846
  O       1.014322      3.828762     -2.982682
  O       2.323838      2.031692     -3.343347
  H       2.108038      2.253408     -4.270145
  N       3.449577      3.168294     -0.915059
  H       3.719691      2.936899      0.044530
  H       4.067829      2.618309     -1.514480
  C      -2.448208     -0.298287     -3.611957
  H      -2.340056      0.285066     -4.528237
  H      -2.846759     -1.281510     -3.872301
  H      -3.353362     -0.060746     -1.675358
  C      -3.427309      0.388111     -2.680688
  C      -3.137481      1.872335     -2.561946
  O      -2.550651      2.551012     -3.380616
  O      -3.717557      2.382427     -1.459977
  H      -3.539306      3.343160     -1.447606
  N      -4.780835      0.300298     -3.253210
  H      -5.033163     -0.685270     -3.307020
  H      -5.443674      0.718227     -2.600802
43
Coordinates from ORCA-job 3_Cu4_Cys3 E -8719.806004142838
  Cu     -1.111342     -1.466073     -0.896783
  S       0.278311     -0.139898      3.023550
  S      -0.795427     -0.548167     -2.881166
  Cu     -0.818647     -1.215735      1.391407
  Cu     -0.584765      0.941404     -1.238096
  Cu     -0.211944      1.198910      1.337093
  S      -0.542655      2.807405     -0.083733
  C       1.866569     -0.839825      2.437538
  H       2.342919     -1.353703      3.276215
  H       1.672155     -1.580234      1.643112
  H       2.291071      0.739624      1.051302
  C       2.814080      0.201117      1.865713
  C       3.215036      1.210858      2.923323
  O       3.420241      0.956561      4.091040
  O       3.382204      2.440744      2.397170
  H       3.694006      3.031931      3.111627
  N       4.044807     -0.456848      1.412360
  H       3.777004     -1.151307      0.709733
  H       4.618374      0.224268      0.908592
  C       1.157178      3.481197     -0.177050
  H       1.085868      4.515640     -0.522624
  H       1.584910      3.478006      0.831759
  H       1.954924      1.612868     -0.880907
  C       2.075217      2.697431     -1.094441
  C       1.720175      2.919809     -2.551608
  O       1.026795      3.814565     -2.989363
  O       2.339514      2.016791     -3.334790
  H       2.128132      2.234267     -4.263661
  N       3.455179      3.159308     -0.908139
  H       3.720812      2.933538      0.054064
  H       4.073476      2.603118     -1.501732
  C      -2.449420     -0.287509     -3.618954
  H      -2.343950      0.305888     -4.529091
  H      -2.842558     -1.270029     -3.890038
  H      -3.357585     -0.073701     -1.680770
  C      -3.433453      0.384205     -2.681822
  C      -3.151031      1.868653     -2.548676
  O      -2.574457      2.559282     -3.364581
  O      -3.725302      2.363585     -1.436666
  H      -3.551842      3.325125     -1.414796
  N      -4.785437      0.294509     -3.256851
  H      -5.032996     -0.691728     -3.319535
  H      -5.451677      0.703787     -2.602411
43
Coordinates from ORCA-job 3_Cu4_Cys3 E -8719.806050833888
  Cu     -1.103769     -1.459220     -0.916927
  S       0.270326     -0.139999      3.012996
  S      -0.797297     -0.535911     -2.900083
  Cu     -0.815616     -1.215791      1.372599
  Cu     -0.579870      0.948764     -1.253587
  Cu     -0.213594      1.201079      1.326305
  S      -0.536836      2.811699     -0.094959
  C       1.863831     -0.835980      2.435367
  H       2.336112     -1.348491      3.277120
  H       1.675160     -1.576661      1.640145
  H       2.292083      0.746045      1.053182
  C       2.811878      0.207155      1.869226
  C       3.207898      1.216671      2.929088
  O       3.397100      0.965089      4.100064
  O       3.390989      2.443105      2.400264
  H       3.699282      3.034500      3.116005
  N       4.046142     -0.447624      1.420218
  H       3.783008     -1.141881      0.715657
  H       4.620214      0.235472      0.919767
  C       1.164972      3.480826     -0.182138
  H       1.097679      4.514881     -0.529836
  H       1.589030      3.478410      0.828361
  H       1.959470      1.608761     -0.877960
  C       2.083553      2.692368     -1.094825
  C       1.731874      2.910671     -2.553399
  O       1.043132      3.807012     -2.995420
  O       2.347313      2.001452     -3.332224
  H       2.136376      2.216114     -4.261937
  N       3.464508      3.150411     -0.907431
  H       3.727023      2.931600      0.057182
  H       4.082574      2.588286     -1.495540
  C      -2.455234     -0.274978     -3.628650
  H      -2.357190      0.329606     -4.532238
  H      -2.843795     -1.256442     -3.910185
  H      -3.355260     -0.085297     -1.684096
  C      -3.440259      0.380928     -2.680596
  C      -3.165810      1.866034     -2.536292
  O      -2.604393      2.568161     -3.352858
  O      -3.728721      2.346776     -1.412161
  H      -3.560029      3.309030     -1.382585
  N      -4.793428      0.287321     -3.250461
  H      -5.036165     -0.699777     -3.318205
  H      -5.459788      0.689462     -2.591641
43
Coordinates from ORCA-job 3_Cu4_Cys3 E -8719.806057876836
  Cu     -1.101586     -1.455876     -0.930828
  S       0.266083     -0.141189      3.003761
  S      -0.800667     -0.528155     -2.913108
  Cu     -0.813067     -1.216791      1.359257
  Cu     -0.578593      0.952647     -1.264753
  Cu     -0.216864      1.200359      1.316456
  S      -0.533897      2.814451     -0.104329
  C       1.863454     -0.832158      2.430584
  H       2.332279     -1.347609      3.272458
  H       1.679533     -1.569697      1.631399
  H       2.295023      0.757369      1.058228
  C       2.812202      0.214942      1.873391
  C       3.204036      1.220032      2.938909
  O       3.385826      0.964648      4.110159
  O       3.393577      2.447258      2.414170
  H       3.699450      3.036024      3.133051
  N       4.048869     -0.436211      1.425336
  H       3.789288     -1.126227      0.715319
  H       4.624399      0.250482      0.931494
  C       1.169796      3.478812     -0.188735
  H       1.106283      4.512546     -0.538165
  H       1.591291      3.476385      0.822849
  H       1.959616      1.603319     -0.879442
  C       2.088174      2.686153     -1.097601
  C       1.741933      2.903067     -2.557587
  O       1.057483      3.800815     -3.003357
  O       2.358932      1.991715     -3.332810
  H       2.152680      2.205880     -4.263656
  N       3.470375      3.139298     -0.907355
  H       3.728617      2.924277      0.059232
  H       4.088299      2.571891     -1.490575
  C      -2.461682     -0.267197     -3.634780
  H      -2.368712      0.343870     -4.534575
  H      -2.848062     -1.247935     -3.921787
  H      -3.354472     -0.091592     -1.685574
  C      -3.445876      0.379538     -2.679177
  C      -3.177124      1.865149     -2.527819
  O      -2.626779      2.575223     -3.344761
  O      -3.731925      2.335996     -1.395606
  H      -3.566841      3.298680     -1.361095
  N      -4.800616      0.283400     -3.244218
  H      -5.040036     -0.704223     -3.315613
  H      -5.466228      0.680270     -2.581437
43
Coordinates from ORCA-job 3_Cu4_Cys3 E -8719.806034068899
  Cu     -1.088483     -1.456266     -0.956774
  S       0.256630     -0.148066      2.989206
  S      -0.802684     -0.519290     -2.936449
  Cu     -0.805258     -1.224240      1.334922
  Cu     -0.571623      0.954922     -1.283277
  Cu     -0.221921      1.195584      1.300805
  S      -0.529409      2.813249     -0.117635
  C       1.860809     -0.831533      2.425787
  H       2.325579     -1.346572      3.270124
  H       1.685360     -1.568745      1.624457
  H       2.295104      0.761731      1.058814
  C       2.808588      0.220182      1.876699
  C       3.190540      1.225908      2.945144
  O       3.355350      0.973175      4.119412
  O       3.394219      2.450300      2.418927
  H       3.694444      3.039571      3.139838
  N       4.051252     -0.424796      1.435470
  H       3.799744     -1.114275      0.722053
  H       4.627040      0.265638      0.947178
  C       1.176568      3.473556     -0.192558
  H       1.117596      4.509005     -0.537773
  H       1.593400      3.465185      0.820981
  H       1.965741      1.598680     -0.884239
  C       2.096986      2.681784     -1.099838
  C       1.756142      2.901377     -2.560505
  O       1.079681      3.804529     -3.007750
  O       2.368451      1.985561     -3.334243
  H       2.165158      2.200624     -4.265580
  N       3.479200      3.132267     -0.904157
  H       3.731718      2.921745      0.064917
  H       4.099097      2.560676     -1.481220
  C      -2.472484     -0.262143     -3.639985
  H      -2.391323      0.351004     -4.539523
  H      -2.858094     -1.243766     -3.924951
  H      -3.343924     -0.091276     -1.680649
  C      -3.449460      0.379570     -2.673055
  C      -3.187164      1.866777     -2.524539
  O      -2.650194      2.580083     -3.347424
  O      -3.731795      2.334489     -1.386138
  H      -3.570951      3.297966     -1.353157
  N      -4.809772      0.276392     -3.222840
  H      -5.045566     -0.712435     -3.289754
  H      -5.469821      0.671509     -2.553409
43
Coordinates from ORCA-job 3_Cu4_Cys3 E -8719.806033764797
  Cu     -1.084236     -1.454121     -0.971300
  S       0.251827     -0.149708      2.979389
  S      -0.806715     -0.512117     -2.949991
  Cu     -0.802929     -1.225268      1.320937
  Cu     -0.571412      0.958914     -1.295043
  Cu     -0.222892      1.194656      1.290095
  S      -0.525362      2.815692     -0.126616
  C       1.859371     -0.829831      2.422422
  H       2.321221     -1.345667      3.267864
  H       1.689377     -1.566309      1.619143
  H       2.295161      0.765631      1.059591
  C       2.807155      0.224599      1.878716
  C       3.182109      1.230065      2.949685
  O       3.341404      0.976909      4.124638
  O       3.385750      2.455380      2.425227
  H       3.682024      3.044819      3.147610
  N       4.053088     -0.416763      1.441520
  H       3.806191     -1.105024      0.725303
  H       4.629520      0.276011      0.957296
  C       1.182371      3.472074     -0.199616
  H       1.126643      4.506802     -0.547474
  H       1.596332      3.465184      0.815129
  H       1.969640      1.594258     -0.887209
  C       2.104260      2.676981     -1.102721
  C       1.770655      2.897059     -2.564988
  O       1.096584      3.800505     -3.015103
  O       2.387133      1.981938     -3.336339
  H       2.190205      2.198646     -4.268697
  N       3.486724      3.124616     -0.902178
  H       3.734728      2.915018      0.068280
  H       4.107494      2.550259     -1.475592
  C      -2.480741     -0.255963     -3.644417
  H      -2.405044      0.362243     -4.540952
  H      -2.864961     -1.237109     -3.932641
  H      -3.344373     -0.098792     -1.680215
  C      -3.454659      0.377488     -2.669497
  C      -3.196024      1.864355     -2.513048
  O      -2.666085      2.584325     -3.334821
  O      -3.735417      2.323074     -1.368466
  H      -3.577968      3.286999     -1.330368
  N      -4.817511      0.274038     -3.213937
  H      -5.050809     -0.715066     -3.285653
  H      -5.475360      0.662839     -2.538647
43
Coordinates from ORCA-job 3_Cu4_Cys3 E -8719.805980029996
  Cu     -1.075728     -1.458459     -0.982908
  S       0.248798     -0.153134      2.971067
  S      -0.808253     -0.512600     -2.960942
  Cu     -0.798694     -1.229738      1.309778
  Cu     -0.568994      0.956512     -1.304278
  Cu     -0.225384      1.191107      1.280720
  S      -0.525490      2.812671     -0.134748
  C       1.858269     -0.830536      2.417202
  H       2.318958     -1.347770      3.262392
  H       1.691467     -1.565700      1.611953
  H       2.294578      0.767647      1.058493
  C       2.805950      0.226148      1.877768
  C       3.176404      1.229803      2.951836
  O       3.333275      0.973911      4.126562
  O       3.378562      2.457072      2.431383
  H       3.672256      3.044909      3.156095
  N       4.053827     -0.412247      1.441917
  H       3.809605     -1.099022      0.723348
  H       4.630250      0.282655      0.960728
  C       1.182592      3.469732     -0.201248
  H       1.128059      4.505314     -0.546695
  H       1.593313      3.460445      0.814803
  H       1.971406      1.592847     -0.890905
  C       2.107252      2.676075     -1.102981
  C       1.779638      2.900865     -2.565818
  O       1.111084      3.808229     -3.016181
  O       2.395027      1.984822     -3.337057
  H       2.203716      2.204748     -4.269811
  N       3.488963      3.123322     -0.896176
  H       3.731698      2.914953      0.075913
  H       4.112327      2.547365     -1.465190
  C      -2.488563     -0.260507     -3.642658
  H      -2.419541      0.352159     -4.543469
  H      -2.875398     -1.243298     -3.921538
  H      -3.336802     -0.091842     -1.672324
  C      -3.454194      0.378585     -2.663670
  C      -3.195926      1.866469     -2.517696
  O      -2.667255      2.581394     -3.345011
  O      -3.734086      2.332441     -1.375454
  H      -3.577858      3.296858     -1.344386
  N      -4.821946      0.271173     -3.196323
  H      -5.054802     -0.718601     -3.260247
  H      -5.473887      0.662855     -2.516932
43
Coordinates from ORCA-job 3_Cu4_Cys3 E -8719.805972740527
  Cu     -1.075428     -1.458690     -0.979876
  S       0.249502     -0.152017      2.973114
  S      -0.807285     -0.514155     -2.958438
  Cu     -0.799190     -1.228936      1.312616
  Cu     -0.568887      0.955550     -1.301488
  Cu     -0.223743      1.191566      1.282391
  S      -0.525309      2.812604     -0.132944
  C       1.858012     -0.831946      2.419924
  H       2.318676     -1.347968      3.265862
  H       1.690207     -1.568320      1.616056
  H       2.295609      0.762959      1.057813
  C       2.806779      0.222773      1.878166
  C       3.177712      1.228000      2.950611
  O       3.338005      0.972947      4.125093
  O       3.376003      2.455497      2.429346
  H       3.669817      3.044194      3.153302
  N       4.053939     -0.417759      1.443698
  H       3.808846     -1.105964      0.726811
  H       4.631029      0.275439      0.960866
  C       1.182596      3.470213     -0.199469
  H       1.127370      4.506414     -0.542947
  H       1.594353      3.459404      0.816154
  H       1.972389      1.595043     -0.893043
  C       2.106580      2.678678     -1.103796
  C       1.776373      2.905452     -2.565751
  O       1.107550      3.813843     -3.013677
  O       2.389648      1.990102     -3.339363
  H       2.197009      2.211770     -4.271432
  N       3.488186      3.127249     -0.898761
  H       3.732882      2.918140      0.072676
  H       4.111193      2.552546     -1.469435
  C      -2.487428     -0.263228     -3.640879
  H      -2.418055      0.346924     -4.543360
  H      -2.874617     -1.246650     -3.917151
  H      -3.337164     -0.089827     -1.671479
  C      -3.453190      0.378655     -2.663915
  C      -3.193858      1.866590     -2.520969
  O      -2.662498      2.579040     -3.348660
  O      -3.734153      2.335861     -1.381023
  H      -3.577451      3.300249     -1.352097
  N      -4.820606      0.271330     -3.197587
  H      -5.054069     -0.718374     -3.260321
  H      -5.472862      0.664435     -2.519324
43
Coordinates from ORCA-job 3_Cu4_Cys3 E -8719.805935749629
  Cu     -1.070075     -1.455984     -0.982843
  S       0.249926     -0.147999      2.970087
  S      -0.806948     -0.511062     -2.962419
  Cu     -0.798302     -1.226034      1.309430
  Cu     -0.569777      0.957518     -1.302894
  Cu     -0.220058      1.193882      1.278233
  S      -0.525169      2.815761     -0.134992
  C       1.857370     -0.832660      2.420479
  H       2.316005     -1.347549      3.268187
  H       1.688995     -1.570022      1.617859
  H       2.300567      0.758360      1.055886
  C       2.809969      0.218760      1.877839
  C       3.180719      1.224558      2.949842
  O       3.347862      0.968142      4.123141
  O       3.369982      2.454038      2.430248
  H       3.662915      3.042954      3.154313
  N       4.055849     -0.425997      1.446814
  H       3.809650     -1.115590      0.731696
  H       4.635541      0.264285      0.962959
  C       1.182861      3.473089     -0.198188
  H       1.127902      4.509526     -0.541087
  H       1.593644      3.462243      0.817831
  H       1.972966      1.598330     -0.893075
  C       2.107107      2.682104     -1.102639
  C       1.777504      2.911034     -2.564461
  O       1.110212      3.820995     -3.011454
  O       2.389176      1.995540     -3.338951
  H       2.197668      2.219254     -4.270748
  N       3.488842      3.130407     -0.896789
  H       3.733208      2.921237      0.074751
  H       4.111964      2.555643     -1.467294
  C      -2.490369     -0.267397     -3.639288
  H      -2.425952      0.337431     -4.545693
  H      -2.876819     -1.253193     -3.908329
  H      -3.336160     -0.086194     -1.668471
  C      -3.454286      0.377925     -2.662757
  C      -3.195596      1.866585     -2.526979
  O      -2.662946      2.575302     -3.356856
  O      -3.737383      2.341266     -1.389785
  H      -3.581866      3.305913     -1.365637
  N      -4.822713      0.267551     -3.193159
  H      -5.055478     -0.722517     -3.252597
  H      -5.474033      0.662201     -2.514897
43
Coordinates from ORCA-job 3_Cu4_Cys3 E -8719.805944620592
  Cu     -1.071564     -1.456140     -0.981962
  S       0.250924     -0.149228      2.970500
  S      -0.807560     -0.511542     -2.961325
  Cu     -0.798734     -1.226302      1.310269
  Cu     -0.570162      0.957404     -1.302117
  Cu     -0.220656      1.193306      1.279049
  S      -0.525628      2.815660     -0.134153
  C       1.858588     -0.831880      2.418584
  H       2.318254     -1.347386      3.265378
  H       1.690167     -1.568410      1.615174
  H       2.299754      0.761689      1.056029
  C       2.809842      0.221160      1.876854
  C       3.180611      1.225819      2.950025
  O       3.347089      0.968321      4.123148
  O       3.370597      2.455605      2.431469
  H       3.663495      3.043875      3.156134
  N       4.056007     -0.421996      1.444216
  H       3.810149     -1.110752      0.728178
  H       4.634962      0.269451      0.961157
  C       1.182149      3.473183     -0.198749
  H       1.127002      4.508926     -0.543692
  H       1.593004      3.464164      0.817219
  H       1.971439      1.597142     -0.890385
  C       2.106423      2.680532     -1.101627
  C       1.777748      2.907113     -2.563988
  O       1.110926      3.816396     -3.013102
  O       2.389699      1.989917     -3.336339
  H       2.198149      2.211263     -4.268684
  N       3.488306      3.128102     -0.895496
  H       3.732321      2.918737      0.076074
  H       4.111283      2.553162     -1.465966
  C      -2.489841     -0.265845     -3.640131
  H      -2.423934      0.340922     -4.545150
  H      -2.876373     -1.250840     -3.911871
  H      -3.337860     -0.088031     -1.670123
  C      -3.454746      0.378125     -2.663572
  C      -3.195313      1.866430     -2.524472
  O      -2.663150      2.576820     -3.353222
  O      -3.736188      2.338732     -1.385949
  H      -3.579912      3.303193     -1.359650
  N      -4.822558      0.269589     -3.195706
  H      -5.055828     -0.720233     -3.257191
  H      -5.474410      0.663483     -2.517528
43
Coordinates from ORCA-job 3_Cu4_Cys3 E -8719.805962382614
  Cu     -1.077246     -1.451057     -0.982401
  S       0.251072     -0.149304      2.969761
  S      -0.809290     -0.507772     -2.961422
  Cu     -0.802065     -1.223185      1.309833
  Cu     -0.570840      0.961071     -1.302140
  Cu     -0.221422      1.194698      1.278391
  S      -0.524405      2.819613     -0.134424
  C       1.859430     -0.829178      2.415720
  H       2.319727     -1.345804      3.261510
  H       1.691501     -1.564297      1.610840
  H       2.298839      0.768349      1.056925
  C       2.809083      0.226292      1.876389
  C       3.179284      1.229553      2.951176
  O       3.341439      0.971543      4.124720
  O       3.374175      2.458692      2.432775
  H       3.666953      3.046541      3.157909
  N       4.056187     -0.414317      1.442368
  H       3.811816     -1.101437      0.724256
  H       4.634685      0.279087      0.961554
  C       1.183363      3.475877     -0.203670
  H       1.128890      4.509339     -0.555496
  H       1.594260      3.472768      0.812285
  H       1.969108      1.594841     -0.884149
  C       2.107449      2.676811     -1.101030
  C       1.782309      2.895559     -2.565245
  O       1.115813      3.801743     -3.021009
  O       2.397085      1.974450     -3.330947
  H       2.206638      2.189302     -4.265050
  N       3.490001      3.121656     -0.894150
  H       3.732669      2.912715      0.077807
  H       4.112295      2.545080     -1.463685
  C      -2.488411     -0.256144     -3.645268
  H      -2.419288      0.360772     -4.543213
  H      -2.872860     -1.238309     -3.929672
  H      -3.343229     -0.099198     -1.676833
  C      -3.458061      0.376582     -2.665841
  C      -3.201287      1.863943     -2.510922
  O      -2.675794      2.584752     -3.335012
  O      -3.736915      2.322075     -1.364338
  H      -3.581421      3.286387     -1.327584
  N      -4.823626      0.270972     -3.203646
  H      -5.054847     -0.718603     -3.275677
  H      -5.478590      0.657173     -2.524083
43
Coordinates from ORCA-job 3_Cu4_Cys3 E -8719.805951391698
  Cu     -1.071970     -1.453229     -0.987062
  S       0.249314     -0.150639      2.967032
  S      -0.809147     -0.508022     -2.965725
  Cu     -0.799513     -1.225615      1.305290
  Cu     -0.569506      0.959904     -1.305330
  Cu     -0.221046      1.193316      1.275307
  S      -0.523369      2.818158     -0.137100
  C       1.858421     -0.830978      2.416217
  H       2.317327     -1.347286      3.262953
  H       1.691927     -1.566510      1.611422
  H       2.300056      0.765070      1.056700
  C       2.809057      0.224124      1.877754
  C       3.176295      1.228382      2.952572
  O       3.339183      0.970530      4.126084
  O       3.367276      2.458361      2.434781
  H       3.657893      3.046739      3.160342
  N       4.057103     -0.416593      1.446793
  H       3.814163     -1.104699      0.729146
  H       4.636195      0.276392      0.966104
  C       1.184766      3.474155     -0.203228
  H       1.130730      4.508864     -0.551437
  H       1.595172      3.467496      0.812935
  H       1.972622      1.595549     -0.888633
  C       2.109328      2.678195     -1.102970
  C       1.782904      2.900402     -2.566422
  O       1.117582      3.808859     -3.019408
  O       2.395235      1.980079     -3.334953
  H       2.204528      2.197842     -4.268345
  N       3.491367      3.124752     -0.896155
  H       3.734457      2.915980      0.075749
  H       4.114355      2.548996     -1.465792
  C      -2.491199     -0.259304     -3.643818
  H      -2.425580      0.353790     -4.544622
  H      -2.876664     -1.242719     -3.922524
  H      -3.339059     -0.094588     -1.672790
  C      -3.457161      0.377287     -2.663333
  C      -3.200088      1.865198     -2.515128
  O      -2.674518      2.582356     -3.342309
  O      -3.735485      2.328405     -1.370402
  H      -3.580243      3.292900     -1.337952
  N      -4.824746      0.269600     -3.195880
  H      -5.056267     -0.720244     -3.263181
  H      -5.477224      0.658379     -2.515369
43
Coordinates from ORCA-job 3_Cu4_Cys3 E -8719.805928845133
  Cu     -1.069159     -1.454613     -0.985614
  S       0.251894     -0.149985      2.966907
  S      -0.809295     -0.509747     -2.964736
  Cu     -0.797904     -1.226087      1.306390
  Cu     -0.571419      0.958795     -1.303684
  Cu     -0.219295      1.193285      1.275412
  S      -0.525697      2.817352     -0.135725
  C       1.859774     -0.832398      2.415479
  H       2.318539     -1.349472      3.261808
  H       1.691905     -1.567424      1.610542
  H       2.303006      0.763021      1.055917
  C       2.811861      0.221454      1.876754
  C       3.180123      1.224746      2.952082
  O       3.348437      0.964638      4.124370
  O       3.365179      2.456585      2.436750
  H       3.656334      3.043896      3.162890
  N       4.058740     -0.420939      1.445288
  H       3.814284     -1.109176      0.728278
  H       4.638336      0.271040      0.963743
  C       1.181839      3.475218     -0.200576
  H       1.126739      4.510146     -0.547994
  H       1.591934      3.468434      0.815714
  H       1.972140      1.597945     -0.887285
  C       2.107433      2.680878     -1.100768
  C       1.780375      2.903877     -2.564022
  O       1.114303      3.812154     -3.016224
  O       2.393147      1.984625     -3.333385
  H       2.202544      2.203415     -4.266531
  N       3.488895      3.129249     -0.893727
  H       3.732156      2.920424      0.078163
  H       4.112753      2.554481     -1.463443
  C      -2.492953     -0.265812     -3.640652
  H      -2.429074      0.340259     -4.546296
  H      -2.879532     -1.251195     -3.910902
  H      -3.337931     -0.086988     -1.669452
  C      -3.456522      0.378520     -2.662995
  C      -3.197276      1.866957     -2.524816
  O      -2.667095      2.577328     -3.354849
  O      -3.736048      2.339301     -1.385345
  H      -3.579775      3.303785     -1.359436
  N      -4.825104      0.269315     -3.192889
  H      -5.058027     -0.720589     -3.254094
  H      -5.476092      0.662942     -2.513736
43
Coordinates from ORCA-job 3_Cu4_Cys3 E -8719.805935784823
  Cu     -1.067515     -1.453809     -0.989814
  S       0.250412     -0.151473      2.964602
  S      -0.809724     -0.507702     -2.968251
  Cu     -0.797098     -1.226898      1.302404
  Cu     -0.570463      0.959780     -1.306222
  Cu     -0.219660      1.192646      1.272895
  S      -0.524689      2.817798     -0.137647
  C       1.859549     -0.832135      2.414504
  H       2.317741     -1.349318      3.261076
  H       1.693198     -1.566872      1.608973
  H       2.302816      0.764592      1.056458
  C       2.811121      0.222956      1.877535
  C       3.177423      1.226190      2.953595
  O       3.342912      0.966297      4.126319
  O       3.364401      2.457752      2.438218
  H       3.654477      3.045170      3.164727
  N       4.059207     -0.417875      1.447104
  H       3.816445     -1.105920      0.729339
  H       4.638672      0.275020      0.966727
  C       1.183061      3.475081     -0.202460
  H       1.128521      4.509737     -0.550779
  H       1.592732      3.468774      0.814013
  H       1.972523      1.596882     -0.887121
  C       2.108742      2.679550     -1.101517
  C       1.782737      2.901241     -2.565179
  O       1.117378      3.809364     -3.018732
  O       2.395581      1.980845     -3.333201
  H       2.205509      2.198524     -4.266730
  N       3.490321      3.127186     -0.894023
  H       3.732992      2.918771      0.078091
  H       4.114124      2.551773     -1.463137
  C      -2.494065     -0.263031     -3.642282
  H      -2.431213      0.345310     -4.546487
  H      -2.880289     -1.247943     -3.914673
  H      -3.337284     -0.089081     -1.669955
  C      -3.457328      0.378442     -2.662374
  C      -3.199272      1.866837     -2.521174
  O      -2.671849      2.579693     -3.350883
  O      -3.735852      2.335920     -1.379357
  H      -3.580195      3.300473     -1.351403
  N      -4.826279      0.269095     -3.191186
  H      -5.058402     -0.720896     -3.254006
  H      -5.476951      0.660892     -2.510676
43
Coordinates from ORCA-job 3_Cu4_Cys3 E -8719.805931429255
  Cu     -1.066626     -1.451681     -0.997133
  S       0.248322     -0.153860      2.959826
  S      -0.811287     -0.504452     -2.974741
  Cu     -0.796266     -1.228380      1.295229
  Cu     -0.567916      0.961277     -1.311329
  Cu     -0.219620      1.191542      1.267688
  S      -0.523381      2.818607     -0.142104
  C       1.859769     -0.831434      2.412316
  H       2.317081     -1.348228      3.259604
  H       1.696092     -1.566087      1.606192
  H       2.302678      0.766884      1.055957
  C       2.810129      0.225743      1.877816
  C       3.172412      1.229718      2.954553
  O       3.332473      0.971209      4.128307
  O       3.362495      2.460451      2.438210
  H       3.650108      3.048806      3.165001
  N       4.060579     -0.412129      1.449595
  H       3.820998     -1.100391      0.730970
  H       4.639487      0.282284      0.970753
  C       1.184151      3.476172     -0.206833
  H       1.130105      4.509542     -0.559005
  H       1.592236      3.473254      0.810284
  H       1.972699      1.595296     -0.884028
  C       2.111026      2.677150     -1.101535
  C       1.788231      2.894063     -2.566623
  O       1.123507      3.800400     -3.024707
  O       2.403020      1.971156     -3.330170
  H       2.214543      2.185240     -4.264883
  N       3.492637      3.123512     -0.892303
  H       3.733446      2.916390      0.080526
  H       4.116816      2.546666     -1.459543
  C      -2.496268     -0.256498     -3.646000
  H      -2.434527      0.357786     -4.546279
  H      -2.881952     -1.239847     -3.924574
  H      -3.337485     -0.095021     -1.671924
  C      -3.459458      0.378055     -2.661428
  C      -3.203113      1.865955     -2.511902
  O      -2.681782      2.584917     -3.340241
  O      -3.734109      2.326850     -1.364243
  H      -3.579232      3.291392     -1.330721
  N      -4.828661      0.269924     -3.189530
  H      -5.059660     -0.719997     -3.257301
  H      -5.479227      0.657397     -2.506433
43
Coordinates from ORCA-job 3_Cu4_Cys3 E -8719.805929242266
  Cu     -1.065261     -1.452662     -0.994823
  S       0.249344     -0.153368      2.961346
  S      -0.810396     -0.505551     -2.972586
  Cu     -0.796159     -1.228047      1.297476
  Cu     -0.569229      0.960838     -1.309282
  Cu     -0.219461      1.191972      1.269637
  S      -0.524095      2.818202     -0.140191
  C       1.859744     -0.832266      2.412586
  H       2.317302     -1.349628      3.259391
  H       1.694877     -1.566627      1.606417
  H       2.303140      0.765664      1.056001
  C       2.810765      0.224137      1.877527
  C       3.174296      1.227529      2.954374
  O       3.336919      0.967939      4.127553
  O       3.362281      2.459008      2.439083
  H       3.650588      3.046737      3.166087
  N       4.060342     -0.414824      1.448523
  H       3.819584     -1.102904      0.730115
  H       4.639496      0.279068      0.969211
  C       1.183512      3.475780     -0.204670
  H       1.129174      4.509762     -0.555001
  H       1.592109      3.471214      0.812240
  H       1.972964      1.596301     -0.885170
  C       2.110111      2.678559     -1.101287
  C       1.785745      2.897472     -2.565747
  O       1.120403      3.804346     -3.021841
  O       2.399905      1.975806     -3.331267
  H       2.210671      2.191383     -4.265475
  N       3.491536      3.125928     -0.892841
  H       3.733210      2.918330      0.079689
  H       4.115760      2.549884     -1.460855
  C      -2.495903     -0.260483     -3.643716
  H      -2.434613      0.349712     -4.546787
  H      -2.881951     -1.245037     -3.917561
  H      -3.336602     -0.090785     -1.669987
  C      -3.458291      0.378556     -2.661332
  C      -3.200991      1.866824     -2.517516
  O      -2.676236      2.581798     -3.347104
  O      -3.735098      2.333061     -1.373407
  H      -3.579833      3.297639     -1.343608
  N      -4.827820      0.269357     -3.188577
  H      -5.059498     -0.720655     -3.252702
  H      -5.477869      0.659666     -2.506610
43
Coordinates from ORCA-job 3_Cu4_Cys3 E -8719.805920082021
  Cu     -1.063230     -1.452253     -0.997097
  S       0.248590     -0.153736      2.959748
  S      -0.809965     -0.504182     -2.974564
  Cu     -0.795901     -1.228144      1.295249
  Cu     -0.569103      0.961741     -1.310532
  Cu     -0.220143      1.192181      1.268309
  S      -0.524045      2.818873     -0.141149
  C       1.859261     -0.832336      2.411413
  H       2.316513     -1.349974      3.258212
  H       1.694706     -1.566443      1.604961
  H       2.303213      0.765885      1.055443
  C       2.810536      0.224198      1.877037
  C       3.173539      1.227325      2.954316
  O       3.336477      0.967223      4.127341
  O       3.360816      2.459194      2.439717
  H       3.648858      3.046609      3.167078
  N       4.060264     -0.414654      1.448345
  H       3.819728     -1.102476      0.729617
  H       4.639620      0.279386      0.969489
  C       1.183907      3.475826     -0.204517
  H       1.130108      4.509939     -0.554546
  H       1.591919      3.470792      0.812628
  H       1.973338      1.596309     -0.885114
  C       2.110766      2.678593     -1.100912
  C       1.787145      2.897753     -2.565516
  O       1.122439      3.804920     -3.021945
  O       2.401234      1.975789     -3.330723
  H       2.212654      2.191462     -4.265040
  N       3.492158      3.125743     -0.891880
  H       3.733262      2.918556      0.080877
  H       4.116587      2.549289     -1.459263
  C      -2.496801     -0.261159     -3.643246
  H      -2.437331      0.347771     -4.547284
  H      -2.882631     -1.246376     -3.915037
  H      -3.335170     -0.089800     -1.668586
  C      -3.458112      0.378541     -2.660275
  C      -3.201305      1.867042     -2.518196
  O      -2.676284      2.581202     -3.348288
  O      -3.736132      2.334484     -1.374881
  H      -3.581433      3.299183     -1.346246
  N      -4.828294      0.268296     -3.185743
  H      -5.059664     -0.721876     -3.248607
  H      -5.477623      0.658941     -2.503278
