12
Coordinates from ORCA-job 1_Cu2C2H6S2
  Cu  -5.30073918881600      7.11500572142604      4.76811711262465
  S   -1.21580357150502      7.21561636015464      6.99377668610280
  C   -1.64807174875497      7.93952504480853      8.61569912655903
  H   -2.37209476544273      7.32618649757423      9.15345230556514
  H   -2.05668382331309      8.94571982040688      8.51496183808347
  H   -0.74033018023392      8.00127367041178      9.22064013124891
  S   -7.17747090470228      7.09822370622512      3.74891888339953
  C   -7.18817243886455      8.69062159193371      2.85131443803162
  H   -8.12417422887227      8.76741447311253      2.29295473530034
  H   -6.36355998113437      8.76119800924025      2.14095644204689
  H   -7.12964565283767      9.54058201835244      3.53225727321356
  Cu  -3.08299351552309      7.16576408635381      5.95828802782401
