12
Coordinates from ORCA-job 1_Cu2C2H6S2 E -4152.773654371635
  Cu     -5.511764      7.532655      4.959335
  S      -0.715908      7.772348      7.181896
  C      -1.287391      7.755415      8.916652
  H      -1.861350      6.851802      9.144548
  H      -1.934611      8.609900      9.137658
  H      -0.439569      7.793475      9.611789
  S      -7.852407      7.459536      3.847775
  C      -7.495339      8.595457      2.462696
  H      -8.376539      8.726352      1.822526
  H      -6.681806      8.222100      1.832890
  H      -7.195530      9.585953      2.818943
  Cu     -3.047526      7.662138      6.054629
12
Coordinates from ORCA-job 1_Cu2C2H6S2 E -4152.785645470742
  Cu     -5.508099      7.530418      4.970788
  S      -0.789113      7.777856      7.115783
  C      -1.356248      7.762190      8.850390
  H      -1.925436      6.850932      9.093079
  H      -2.003349      8.622502      9.083670
  H      -0.495191      7.803700      9.537319
  S      -7.778775      7.451863      3.913209
  C      -7.426169      8.587151      2.528454
  H      -8.320000      8.711606      1.895529
  H      -6.616043      8.214559      1.881811
  H      -7.129845      9.588900      2.877706
  Cu     -3.051473      7.665456      6.043600
12
Coordinates from ORCA-job 1_Cu2C2H6S2 E -4152.798992813832
  Cu     -5.500303      7.528627      4.987083
  S      -0.886664      7.785194      7.030569
  C      -1.443573      7.770772      8.766877
  H      -2.005574      6.857495      9.024799
  H      -2.088314      8.631113      9.013037
  H      -0.571542      7.815912      9.441925
  S      -7.680914      7.443119      3.997947
  C      -7.338504      8.576877      2.611411
  H      -8.242573      8.693894      1.989211
  H      -6.536080      8.208742      1.950317
  H      -7.045752      9.584982      2.949767
  Cu     -3.059948      7.670404      6.028397
12
Coordinates from ORCA-job 1_Cu2C2H6S2 E -4152.808766785639
  Cu     -5.489141      7.527502      5.003970
  S      -0.988437      7.791279      6.947304
  C      -1.525620      7.778678      8.689629
  H      -2.079974      6.865240      8.961382
  H      -2.167226      8.637448      8.947334
  H      -0.643200      7.827337      9.350737
  S      -7.578890      7.435913      4.080806
  C      -7.256212      8.567782      2.688262
  H      -8.169705      8.676313      2.078469
  H      -6.462372      8.204593      2.014875
  H      -6.967101      9.580030      3.015853
  Cu     -3.071862      7.675016      6.012715
12
Coordinates from ORCA-job 1_Cu2C2H6S2 E -4152.812610271434
  Cu     -5.473031      7.527357      5.020361
  S      -1.095755      7.794484      6.869297
  C      -1.598799      7.785268      8.623202
  H      -2.144452      6.872039      8.910114
  H      -2.235466      8.643021      8.893357
  H      -0.702884      7.837348      9.265225
  S      -7.471282      7.431297      4.158302
  C      -7.182915      8.560690      2.754507
  H      -8.108135      8.656717      2.160944
  H      -6.398855      8.203117      2.067889
  H      -6.899478      9.577431      3.070680
  Cu     -3.088690      7.678363      5.997459
12
Coordinates from ORCA-job 1_Cu2C2H6S2 E -4152.812860516452
  Cu     -5.464516      7.517000      5.014272
  S      -1.098117      7.778260      6.875094
  C      -1.592182      7.787770      8.632550
  H      -2.139583      6.878982      8.929141
  H      -2.225114      8.650183      8.895563
  H      -0.693688      7.843208      9.270344
  S      -7.464359      7.423186      4.144955
  C      -7.190933      8.565611      2.747477
  H      -8.119048      8.660472      2.158623
  H      -6.407327      8.217506      2.055882
  H      -6.912328      9.580921      3.071596
  Cu     -3.092545      7.664033      5.995842
12
Coordinates from ORCA-job 1_Cu2C2H6S2 E -4152.813849333979
  Cu     -5.409496      7.486051      4.995440
  S      -1.142754      7.713066      6.895449
  C      -1.567081      7.795610      8.672029
  H      -2.121227      6.907315      9.010816
  H      -2.175682      8.679341      8.915766
  H      -0.647096      7.856217      9.275383
  S      -7.403173      7.400221      4.097105
  C      -7.221185      8.585108      2.716518
  H      -8.167026      8.656487      2.155830
  H      -6.441555      8.278587      2.002989
  H      -6.971753      9.598399      3.065561
  Cu     -3.131714      7.610729      5.988450
12
Coordinates from ORCA-job 1_Cu2C2H6S2 E -4152.813971404773
  Cu     -5.393505      7.463189      4.986376
  S      -1.149090      7.682778      6.893658
  C      -1.575581      7.804420      8.665557
  H      -2.140274      6.929098      9.020969
  H      -2.174264      8.699871      8.891550
  H      -0.654786      7.866067      9.267605
  S      -7.386815      7.378056      4.082466
  C      -7.215517      8.591069      2.727633
  H      -8.162441      8.662407      2.168732
  H      -6.432279      8.307141      2.008395
  H      -6.977220      9.600144      3.096844
  Cu     -3.137969      7.582891      5.981552
12
Coordinates from ORCA-job 1_Cu2C2H6S2 E -4152.814152469021
  Cu     -5.365094      7.407275      4.966453
  S      -1.153895      7.615922      6.880990
  C      -1.608476      7.827217      8.633528
  H      -2.199523      6.983358      9.022798
  H      -2.187849      8.746436      8.813549
  H      -0.693581      7.893704      9.244996
  S      -7.358347      7.321219      4.056390
  C      -7.189042      8.601720      2.770180
  H      -8.133368      8.684295      2.207350
  H      -6.395681      8.369291      2.042488
  H      -6.971398      9.596979      3.188654
  Cu     -3.143486      7.519716      5.963961
12
Coordinates from ORCA-job 1_Cu2C2H6S2 E -4152.814191475896
  Cu     -5.356977      7.375701      4.954593
  S      -1.150342      7.581562      6.874202
  C      -1.626140      7.839706      8.615045
  H      -2.230777      7.012327      9.019101
  H      -2.197914      8.768784      8.767841
  H      -0.718518      7.911698      9.237180
  S      -7.349383      7.289965      4.042675
  C      -7.174775      8.606955      2.794230
  H      -8.115327      8.702032      2.226486
  H      -6.375823      8.399870      2.064706
  H      -6.964622      9.592181      3.239893
  Cu     -3.139143      7.486351      5.955385
12
Coordinates from ORCA-job 1_Cu2C2H6S2 E -4152.814206981628
  Cu     -5.349236      7.342296      4.940154
  S      -1.147498      7.543658      6.872239
  C      -1.639220      7.852323      8.601769
  H      -2.257527      7.042773      9.020885
  H      -2.202272      8.791040      8.724765
  H      -0.738674      7.930843      9.233513
  S      -7.339134      7.259006      4.023146
  C      -7.165383      8.613651      2.813566
  H      -8.102485      8.721193      2.242141
  H      -6.361086      8.433174      2.082900
  H      -6.963641      9.586941      3.288275
  Cu     -3.133585      7.450234      5.947983
12
Coordinates from ORCA-job 1_Cu2C2H6S2 E -4152.814209354861
  Cu     -5.341618      7.314118      4.926399
  S      -1.147168      7.509500      6.875073
  C      -1.646943      7.862782      8.594509
  H      -2.277237      7.069657      9.026744
  H      -2.200501      8.810027      8.691653
  H      -0.750787      7.945955      9.231833
  S      -7.328289      7.234379      4.001953
  C      -7.160911      8.620219      2.826166
  H      -8.096036      8.735724      2.253107
  H      -6.352202      8.463621      2.094994
  H      -6.968297      9.582626      3.325978
  Cu     -3.129751      7.418525      5.942929
12
Coordinates from ORCA-job 1_Cu2C2H6S2 E -4152.814209054533
  Cu     -5.328457      7.268908      4.902764
  S      -1.148695      7.452635      6.883651
  C      -1.658352      7.879728      8.583912
  H      -2.308866      7.115373      9.037223
  H      -2.194048      8.840422      8.638542
  H      -0.768119      7.969428      9.228505
  S      -7.308684      7.196167      3.963656
  C      -7.154820      8.631122      2.845499
  H      -8.087363      8.757446      2.270634
  H      -6.338978      8.515014      2.114870
  H      -6.979046      9.574408      3.386062
  Cu     -3.124312      7.366479      5.936019
12
Coordinates from ORCA-job 1_Cu2C2H6S2 E -4152.814209104392
  Cu     -5.313031      7.219007      4.874968
  S      -1.152686      7.387693      6.897248
  C      -1.671135      7.898817      8.571612
  H      -2.345209      7.169672      9.047753
  H      -2.184057      8.873298      8.577852
  H      -0.786836      7.994914      9.223330
  S      -7.284584      7.155351      3.916975
  C      -7.147981      8.643174      2.867566
  H      -8.077895      8.780166      2.290981
  H      -6.324252      8.574568      2.139897
  H      -6.993096      9.562689      3.453436
  Cu     -3.118978      7.307784      5.929720
12
Coordinates from ORCA-job 1_Cu2C2H6S2 E -4152.814213216605
  Cu     -5.290583      7.151217      4.834422
  S      -1.161995      7.295936      6.922275
  C      -1.689452      7.925535      8.552743
  H      -2.397691      7.250595      9.058220
  H      -2.166286      8.916189      8.490199
  H      -0.813228      8.029334      9.214059
  S      -7.247715      7.102109      3.846544
  C      -7.137830      8.659268      2.899860
  H      -8.063825      8.809980      2.320463
  H      -6.303331      8.659867      2.181342
  H      -7.014942      9.541113      3.547876
  Cu     -3.112861      7.225987      5.923335
12
Coordinates from ORCA-job 1_Cu2C2H6S2 E -4152.814215232074
  Cu     -5.274616      7.106190      4.805480
  S      -1.171128      7.232584      6.943687
  C      -1.702108      7.943760      8.538765
  H      -2.434366      7.309629      9.062602
  H      -2.151252      8.943229      8.428763
  H      -0.831210      8.051898      9.206409
  S      -7.220167      7.068533      3.794745
  C      -7.130630      8.669691      2.922815
  H      -8.053783      8.828885      2.341137
  H      -6.289216      8.719764      2.214119
  H      -7.031657      9.522804      3.612141
  Cu     -3.109608      7.170164      5.920675
12
Coordinates from ORCA-job 1_Cu2C2H6S2 E -4152.814221629746
  Cu     -5.268872      7.090160      4.794879
  S      -1.174943      7.209991      6.952218
  C      -1.706585      7.950168      8.533599
  H      -2.447344      7.331585      9.064167
  H      -2.145351      8.952389      8.407290
  H      -0.837274      8.059586      9.203155
  S      -7.209921      7.057237      3.775565
  C      -7.128038      8.673230      2.931093
  H      -8.050325      8.834946      2.348670
  H      -6.284547      8.741799      2.226326
  H      -7.038036      9.515965      3.634380
  Cu     -3.108505      7.150077      5.919995
12
Coordinates from ORCA-job 1_Cu2C2H6S2 E -4152.814221462566
  Cu     -5.269803      7.092099      4.796419
  S      -1.174291      7.213443      6.950888
  C      -1.705937      7.949182      8.534316
  H      -2.445228      7.328438      9.064471
  H      -2.146507      8.951020      8.411041
  H      -0.836200      8.058527      9.203363
  S      -7.211555      7.058922      3.778486
  C      -7.128382      8.672662      2.929882
  H      -8.050963      8.833895      2.347755
  H      -6.285468      8.738871      2.224153
  H      -7.036925      9.517380      3.630643
  Cu     -3.108481      7.152692      5.919920
12
Coordinates from ORCA-job 1_Cu2C2H6S2 E -4152.814223001355
  Cu     -5.268863      7.089168      4.794735
  S      -1.174830      7.209861      6.952080
  C      -1.706870      7.950290      8.533195
  H      -2.447449      7.331965      9.064400
  H      -2.146071      8.952397      8.407166
  H      -0.837633      8.060244      9.202805
  S      -7.209983      7.057017      3.775550
  C      -7.127753      8.673207      2.931515
  H      -8.050103      8.835366      2.349263
  H      -6.284518      8.742301      2.226430
  H      -7.037432      9.516147      3.634574
  Cu     -3.108235      7.149168      5.919624
