13
Coordinates from ORCA-job 2_Cu3C2H6S2
  Cu  -6.39635400000000      6.67687300000000      4.51293500000000
  Cu  -3.99434100000000      7.33536100000000      3.64862700000000
  S   -8.72144900000000      6.15177600000000      5.20006900000000
  C   -9.49706100000000      7.80912900000000      5.14089200000000
  H   -10.39632400000000      7.81660200000000      5.75764300000000
  H   -9.77714600000000      8.03763700000000      4.11154600000000
  H   -8.82504600000000      8.58774200000000      5.49783300000000
  Cu  -7.72955700000000      6.08601800000000      7.40145300000000
  S   -6.84924700000000      5.97871000000000      9.60228100000000
  H   -5.03739500000000      7.50499300000000      8.96187300000000
  H   -4.58767400000000      5.82425700000000      8.66302700000000
  C   -5.11065900000000      6.48882800000000      9.35193600000000
  H   -4.59270100000000      6.45627900000000     10.31333700000000
