13
Coordinates from ORCA-job 2_Cu3C2H6S2 E -5794.064506900159
  Cu     -6.396354      6.676873      4.512935
  Cu     -3.994341      7.335361      3.648627
  S      -8.721449      6.151776      5.200069
  C      -9.497061      7.809129      5.140892
  H     -10.396324      7.816602      5.757643
  H      -9.777146      8.037637      4.111546
  H      -8.825046      8.587742      5.497833
  Cu     -7.729557      6.086018      7.401453
  S      -6.849247      5.978710      9.602281
  H      -5.037395      7.504993      8.961873
  H      -4.587674      5.824257      8.663027
  C      -5.110659      6.488828      9.351936
  H      -4.592701      6.456279     10.313337
13
Coordinates from ORCA-job 2_Cu3C2H6S2 E -5794.071307155921
  Cu     -6.403729      6.649179      4.531093
  Cu     -4.026410      7.340673      3.679836
  S      -8.693689      6.142737      5.216849
  C      -9.451203      7.805647      5.179120
  H     -10.351833      7.811228      5.793408
  H      -9.725173      8.048888      4.151934
  H      -8.771721      8.570739      5.548926
  Cu     -7.731066      6.047338      7.391146
  S      -6.877195      5.978924      9.562747
  H      -5.087163      7.518128      8.902169
  H      -4.615033      5.838660      8.629265
  C      -5.147299      6.507121      9.306403
  H      -4.633441      6.494941     10.270555
13
Coordinates from ORCA-job 2_Cu3C2H6S2 E -5794.084690642547
  Cu     -6.413174      6.644435      4.579790
  Cu     -4.080538      7.332101      3.747814
  S      -8.617424      6.132220      5.271348
  C      -9.380156      7.790600      5.234607
  H     -10.283638      7.787931      5.844365
  H      -9.648711      8.033049      4.205984
  H      -8.704275      8.555188      5.610789
  Cu     -7.739011      6.047255      7.396904
  S      -6.928238      5.985514      9.489349
  H      -5.154771      7.537668      8.819480
  H      -4.669542      5.861191      8.548377
  C      -5.204670      6.527029      9.225147
  H      -4.690806      6.520024     10.189499
13
Coordinates from ORCA-job 2_Cu3C2H6S2 E -5794.094328820378
  Cu     -6.421757      6.633303      4.620725
  Cu     -4.145671      7.325558      3.805085
  S      -8.541296      6.121634      5.323236
  C      -9.311681      7.778813      5.286512
  H     -10.217854      7.769349      5.892074
  H      -9.576177      8.022358      4.256983
  H      -8.639964      8.543916      5.668607
  Cu     -7.744098      6.035963      7.398435
  S      -6.978689      5.988874      9.414079
  H      -5.217032      7.556129      8.743991
  H      -4.714600      5.883562      8.480644
  C      -5.257943      6.546720      9.153226
  H      -4.748193      6.548024     10.119855
13
Coordinates from ORCA-job 2_Cu3C2H6S2 E -5794.098652162495
  Cu     -6.435090      6.622585      4.657160
  Cu     -4.226682      7.313528      3.847230
  S      -8.467164      6.117619      5.368350
  C      -9.253067      7.771573      5.326559
  H     -10.162751      7.752786      5.926504
  H      -9.512908      8.014116      4.295528
  H      -8.589262      8.540431      5.714730
  Cu     -7.742379      6.024105      7.391211
  S      -7.019313      5.985764      9.340885
  H      -5.265264      7.573011      8.691389
  H      -4.742289      5.906477      8.432091
  C      -5.298941      6.563174      9.099819
  H      -4.799845      6.569036     10.071996
13
Coordinates from ORCA-job 2_Cu3C2H6S2 E -5794.099455462879
  Cu     -6.447302      6.604412      4.651191
  Cu     -4.262690      7.272450      3.826828
  S      -8.458280      6.122057      5.362553
  C      -9.238829      7.780972      5.336512
  H     -10.155944      7.755525      5.924811
  H      -9.484656      8.041260      4.306390
  H      -8.576823      8.540372      5.745967
  Cu     -7.730364      5.990657      7.367817
  S      -7.009828      5.937990      9.316604
  H      -5.304170      7.595327      8.712790
  H      -4.722787      5.952422      8.428767
  C      -5.306648      6.577835      9.103253
  H      -4.816634      6.582926     10.079970
13
Coordinates from ORCA-job 2_Cu3C2H6S2 E -5794.100724048792
  Cu     -6.471725      6.664653      4.675549
  Cu     -4.342178      7.202921      3.787476
  S      -8.428648      6.172785      5.369960
  C      -9.294900      7.788382      5.266867
  H     -10.227749      7.729327      5.827520
  H      -9.519002      8.004938      4.222261
  H      -8.685717      8.591369      5.675072
  Cu     -7.695772      6.107229      7.358311
  S      -6.955774      5.912220      9.318896
  H      -5.226738      7.591111      8.863149
  H      -4.658451      5.967358      8.463712
  C      -5.242527      6.547602      9.177275
  H      -4.765774      6.474308     10.157403
13
Coordinates from ORCA-job 2_Cu3C2H6S2 E -5794.100922593975
  Cu     -6.479122      6.565827      4.634231
  Cu     -4.427883      7.242157      3.739631
  S      -8.448706      6.163512      5.324155
  C      -9.264679      7.809787      5.287363
  H     -10.193473      7.759679      5.855939
  H      -9.491720      8.070982      4.253607
  H      -8.625955      8.577947      5.717556
  Cu     -7.663164      5.962370      7.291750
  S      -6.957704      5.898254      9.309125
  H      -5.257613      7.600181      8.833439
  H      -4.635676      5.975012      8.528351
  C      -5.257308      6.571947      9.195606
  H      -4.811951      6.556552     10.192696
13
Coordinates from ORCA-job 2_Cu3C2H6S2 E -5794.101385758636
  Cu     -6.461878      6.639890      4.643219
  Cu     -4.353762      7.153650      3.738776
  S      -8.449863      6.184740      5.324615
  C      -9.302153      7.808035      5.273844
  H     -10.232374      7.739810      5.837744
  H      -9.529775      8.055291      4.236809
  H      -8.684349      8.594876      5.700587
  Cu     -7.657995      6.027421      7.306198
  S      -6.934815      5.873749      9.313280
  H      -5.254625      7.606161      8.887445
  H      -4.626272      6.000076      8.503696
  C      -5.243124      6.563069      9.203868
  H      -4.783969      6.507437     10.193370
13
Coordinates from ORCA-job 2_Cu3C2H6S2 E -5794.101401771970
  Cu     -6.462362      6.600106      4.667981
  Cu     -4.392511      7.256658      3.772240
  S      -8.461206      6.175790      5.361828
  C      -9.306143      7.796615      5.245489
  H     -10.238950      7.753513      5.807435
  H      -9.528366      8.002696      4.198421
  H      -8.687783      8.598089      5.643030
  Cu     -7.672923      6.108097      7.348422
  S      -6.941436      5.919403      9.338581
  H      -5.200004      7.585809      8.897372
  H      -4.643528      5.958996      8.491074
  C      -5.226226      6.540394      9.205097
  H      -4.753516      6.458039     10.186483
13
Coordinates from ORCA-job 2_Cu3C2H6S2 E -5794.101598514237
  Cu     -6.453404      6.622816      4.663451
  Cu     -4.362818      7.180199      3.776899
  S      -8.454042      6.181454      5.341579
  C      -9.301813      7.801953      5.268849
  H     -10.233280      7.742265      5.831543
  H      -9.526727      8.033722      4.227774
  H      -8.684506      8.594793      5.684925
  Cu     -7.660019      6.062666      7.320794
  S      -6.941639      5.892667      9.312941
  H      -5.241114      7.606403      8.893181
  H      -4.641844      5.997877      8.475469
  C      -5.242377      6.557977      9.191715
  H      -4.771370      6.479413     10.174332
13
Coordinates from ORCA-job 2_Cu3C2H6S2 E -5794.101690411151
  Cu     -6.444313      6.623872      4.668138
  Cu     -4.353978      7.145213      3.791922
  S      -8.456797      6.183820      5.329650
  C      -9.301760      7.805898      5.277889
  H     -10.232051      7.741453      5.842075
  H      -9.529154      8.049950      4.240013
  H      -8.682941      8.593860      5.701015
  Cu     -7.650030      6.040017      7.303955
  S      -6.938854      5.877709      9.298595
  H      -5.260714      7.617509      8.894185
  H      -4.639045      6.020765      8.464757
  C      -5.248458      6.566743      9.184429
  H      -4.776860      6.487397     10.166831
13
Coordinates from ORCA-job 2_Cu3C2H6S2 E -5794.101726737463
  Cu     -6.437514      6.618067      4.683835
  Cu     -4.348658      7.138842      3.828478
  S      -8.464079      6.181312      5.325537
  C      -9.303103      7.806552      5.279968
  H     -10.232717      7.744459      5.845611
  H      -9.531922      8.054828      4.243288
  H      -8.681342      8.591814      5.703928
  Cu     -7.649196      6.033634      7.298543
  S      -6.938411      5.877125      9.291061
  H      -5.264411      7.621225      8.885618
  H      -4.640625      6.027104      8.450434
  C      -5.249236      6.569744      9.173308
  H      -4.773740      6.489498     10.153843
13
Coordinates from ORCA-job 2_Cu3C2H6S2 E -5794.101788730528
  Cu     -6.433574      6.609924      4.711961
  Cu     -4.342465      7.145547      3.890591
  S      -8.476569      6.175062      5.323478
  C      -9.306159      7.805864      5.277882
  H     -10.235886      7.750282      5.844116
  H      -9.534618      8.056358      4.241543
  H      -8.679854      8.587800      5.701424
  Cu     -7.655846      6.032742      7.297910
  S      -6.937059      5.883167      9.286028
  H      -5.259880      7.621093      8.866181
  H      -4.643212      6.024411      8.431256
  C      -5.245746      6.570366      9.156714
  H      -4.764086      6.491590     10.134368
13
Coordinates from ORCA-job 2_Cu3C2H6S2 E -5794.101886377094
  Cu     -6.432674      6.598563      4.771253
  Cu     -4.330602      7.163086      4.018580
  S      -8.499955      6.161621      5.321542
  C      -9.310904      7.803334      5.272792
  H     -10.242846      7.760134      5.836595
  H      -9.534112      8.058046      4.236222
  H      -8.676559      8.577666      5.698411
  Cu     -7.674654      6.033301      7.300178
  S      -6.933500      5.898153      9.278672
  H      -5.248367      7.618595      8.821173
  H      -4.649638      6.013783      8.392701
  C      -5.237551      6.570707      9.121751
  H      -4.743592      6.497216     10.093584
13
Coordinates from ORCA-job 2_Cu3C2H6S2 E -5794.101982684459
  Cu     -6.438550      6.589066      4.845876
  Cu     -4.316922      7.182395      4.178875
  S      -8.526208      6.145616      5.320059
  C      -9.314593      7.800019      5.267505
  H     -10.251544      7.769870      5.823899
  H      -9.526001      8.061154      4.230020
  H      -8.672092      8.563465      5.700383
  Cu     -7.700304      6.032318      7.303523
  S      -6.927200      5.916100      9.270479
  H      -5.236302      7.615313      8.761193
  H      -4.658456      6.000292      8.344187
  C      -5.227871      6.571849      9.076466
  H      -4.718910      6.506747     10.040989
13
Coordinates from ORCA-job 2_Cu3C2H6S2 E -5794.102062699902
  Cu     -6.448162      6.586592      4.894498
  Cu     -4.305593      7.189242      4.284610
  S      -8.540552      6.137420      5.320828
  C      -9.316248      7.798503      5.265263
  H     -10.258815      7.773906      5.812337
  H      -9.514893      8.063915      4.226413
  H      -8.671124      8.554516      5.706930
  Cu     -7.717566      6.029787      7.305477
  S      -6.920616      5.924854      9.265707
  H      -5.231667      7.613799      8.720128
  H      -4.664194      5.993405      8.311051
  C      -5.222144      6.573505      9.045296
  H      -4.703379      6.514762     10.004914
13
Coordinates from ORCA-job 2_Cu3C2H6S2 E -5794.102109732819
  Cu     -6.455480      6.590421      4.908083
  Cu     -4.295400      7.181622      4.315896
  S      -8.541563      6.139818      5.324245
  C      -9.318989      7.799419      5.264849
  H     -10.266099      7.771798      5.803752
  H      -9.508422      8.064242      4.224248
  H      -8.677956      8.555160      5.712631
  Cu     -7.720709      6.029102      7.305378
  S      -6.915499      5.923504      9.265542
  H      -5.231912      7.614337      8.710001
  H      -4.664872      5.994431      8.299378
  C      -5.220081      6.574315      9.035788
  H      -4.697971      6.516037      9.993660
13
Coordinates from ORCA-job 2_Cu3C2H6S2 E -5794.102129889244
  Cu     -6.456344      6.592889      4.912147
  Cu     -4.286884      7.170415      4.327432
  S      -8.540435      6.144869      5.326851
  C      -9.323476      7.800813      5.264112
  H     -10.272906      7.769022      5.798622
  H      -9.508943      8.063362      4.222264
  H      -8.687457      8.559471      5.714032
  Cu     -7.716690      6.030816      7.303631
  S      -6.912503      5.921067      9.265244
  H      -5.231614      7.616111      8.712698
  H      -4.664459      5.998776      8.293143
  C      -5.218860      6.574500      9.033429
  H      -4.694384      6.512094      9.989846
13
Coordinates from ORCA-job 2_Cu3C2H6S2 E -5794.102151685846
  Cu     -6.454404      6.592017      4.915648
  Cu     -4.276709      7.155595      4.341254
  S      -8.540444      6.150911      5.329082
  C      -9.329420      7.802961      5.262924
  H     -10.279897      7.767640      5.795334
  H      -9.513745      8.062453      4.220105
  H      -8.697999      8.565628      5.712601
  Cu     -7.709829      6.032977      7.300625
  S      -6.908826      5.915457      9.263311
  H      -5.233155      7.619723      8.720581
  H      -4.663388      6.007971      8.284665
  C      -5.217663      6.575149      9.031646
  H      -4.689475      6.505722      9.985675
13
Coordinates from ORCA-job 2_Cu3C2H6S2 E -5794.102156885450
  Cu     -6.452284      6.589694      4.916691
  Cu     -4.271707      7.148423      4.349519
  S      -8.541161      6.153616      5.329506
  C      -9.332798      7.804079      5.261692
  H     -10.282335      7.768209      5.795781
  H      -9.519576      8.061552      4.218787
  H      -8.702361      8.569101      5.708873
  Cu     -7.706085      6.034731      7.298916
  S      -6.906952      5.911991      9.261323
  H      -5.234133      7.622073      8.727199
  H      -4.662628      6.014195      8.279857
  C      -5.216711      6.575476      9.031441
  H      -4.686222      6.501065      9.983868
13
Coordinates from ORCA-job 2_Cu3C2H6S2 E -5794.102147721961
  Cu     -6.451279      6.588053      4.916339
  Cu     -4.269500      7.145162      4.354278
  S      -8.541741      6.154492      5.328792
  C      -9.334362      7.804514      5.260858
  H     -10.282383      7.769080      5.797695
  H      -9.524380      8.061035      4.218287
  H      -8.703239      8.570518      5.705484
  Cu     -7.704781      6.035555      7.297840
  S      -6.906031      5.910345      9.259558
  H      -5.234643      7.623526      8.731580
  H      -4.662090      6.017865      8.277542
  C      -5.215977      6.575768      9.031777
  H      -4.684547      6.498292      9.983420
13
Coordinates from ORCA-job 2_Cu3C2H6S2 E -5794.102142858276
  Cu     -6.451018      6.586942      4.915025
  Cu     -4.267696      7.142179      4.358229
  S      -8.542118      6.155003      5.327478
  C      -9.335429      7.804755      5.260282
  H     -10.281700      7.769784      5.800238
  H      -9.528973      8.060684      4.218205
  H      -8.703119      8.571281      5.702389
  Cu     -7.704224      6.035945      7.296673
  S      -6.905247      5.909273      9.257653
  H      -5.235052      7.625051      8.735844
  H      -4.661621      6.021317      8.275726
  C      -5.215295      6.576243      9.032293
  H      -4.683462      6.495748      9.983419
13
Coordinates from ORCA-job 2_Cu3C2H6S2 E -5794.102163668653
  Cu     -6.451432      6.586100      4.912930
  Cu     -4.265862      7.138486      4.362167
  S      -8.542390      6.155422      5.325718
  C      -9.336183      7.804961      5.260086
  H     -10.280746      7.770233      5.803028
  H      -9.533032      8.060644      4.218564
  H      -8.702533      8.571643      5.700037
  Cu     -7.703922      6.035827      7.295181
  S      -6.904371      5.908262      9.255526
  H      -5.235696      7.626988      8.740321
  H      -4.661191      6.025344      8.273754
  C      -5.214770      6.577065      9.032706
  H      -4.682826      6.493229      9.983434
