19
Coordinates from ORCA-job 3_Cu4C3H9S3
  Cu  -4.40382246285631      6.77302175151228      3.07353531743858
  S   -2.18543257119486      7.88709102131800      6.66573657070610
  C   -3.87499951172842      8.35456290607245      7.18943468876923
  H   -4.13597534690846      7.82296907119450      8.11658368984935
  H   -4.61388437526279      8.08062751239945      6.41945776594568
  H   -3.94767255935189      9.43499516617997      7.37963988760087
  S   -5.67151096533318      8.28608440130340      1.83309737975686
  C   -6.67263422620836      8.65331088757204      3.31963164691042
  H   -6.78992692021411      9.73716048446778      3.46243191883333
  H   -6.20517385159421      8.22667138164395      4.22171879333417
  H   -7.67355369879007      8.20952347638207      3.21199238458284
  Cu  -3.07843491728869      6.63613526174055      4.91182855076236
  Cu  -3.66557586502313      8.99284393630263      2.55922179655035
  Cu  -2.15832781284810      8.83369519208858      4.63219651373098
  S   -1.58350601489170      9.75552792567310      2.69793117735027
  C   -0.87744120701489      8.18103777211919      2.05975353880219
  H   -0.88340569380646      8.18660276452848      0.96024360312367
  H   0.16045750775177      8.06815093401615      2.40472579621145
  H   -1.47173550743606      7.32589315348525      2.41862697974120
