19
Coordinates from ORCA-job 3_Cu4C3H9S3 E -7871.299833686625
  Cu     -5.369518      6.359996      3.526155
  S      -1.958741      7.227077      7.105868
  C      -3.000945      8.308921      8.150339
  H      -3.214488      7.799260      9.091237
  H      -3.950293      8.544901      7.666968
  H      -2.481244      9.241988      8.372517
  S      -6.064083      7.674610      1.415829
  C      -7.299863      8.781180      2.187640
  H      -7.267290      9.770219      1.728429
  H      -7.131797      8.889190      3.260403
  H      -8.296845      8.363376      2.038811
  Cu     -3.827195      6.204423      5.647182
  Cu     -3.964879      8.568793      2.360890
  Cu     -2.096088      8.379986      4.930833
  S      -1.826427      9.669233      2.861002
  C      -0.677467      8.577732      1.942969
  H      -0.704199      8.833477      0.883132
  H       0.337348      8.725599      2.313987
  H      -0.938542      7.525944      2.053597
19
Coordinates from ORCA-job 3_Cu4C3H9S3 E -7871.311041576261
  Cu     -5.350936      6.367251      3.525500
  S      -1.975053      7.235694      7.057216
  C      -3.018100      8.314477      8.100407
  H      -3.226031      7.803699      9.041893
  H      -3.968549      8.543360      7.617663
  H      -2.501222      9.249559      8.319455
  S      -6.022652      7.676996      1.447233
  C      -7.257897      8.780130      2.219972
  H      -7.223043      9.770712      1.764867
  H      -7.091514      8.880836      3.292861
  H      -8.253696      8.361763      2.065302
  Cu     -3.820341      6.212846      5.630479
  Cu     -3.959701      8.567427      2.375250
  Cu     -2.108219      8.380219      4.921254
  S      -1.858289      9.654014      2.882993
  C      -0.705985      8.571379      1.963169
  H      -0.734733      8.831973      0.904816
  H       0.307176      8.724084      2.336036
  H      -0.963770      7.519486      2.071421
19
Coordinates from ORCA-job 3_Cu4C3H9S3 E -7871.327422105182
  Cu     -5.310198      6.376439      3.520614
  S      -1.997326      7.254247      6.981423
  C      -3.050573      8.324179      8.022336
  H      -3.254558      7.809723      8.962636
  H      -4.001526      8.543180      7.536322
  H      -2.541332      9.263072      8.242160
  S      -5.956926      7.686091      1.493605
  C      -7.194207      8.779015      2.275991
  H      -7.162345      9.773004      1.828548
  H      -7.025737      8.869230      3.349350
  H      -8.187850      8.357108      2.117421
  Cu     -3.802582      6.224235      5.594193
  Cu     -3.950649      8.568465      2.392227
  Cu     -2.121474      8.383099      4.907386
  S      -1.907262      9.629944      2.917067
  C      -0.748810      8.558237      1.993383
  H      -0.779794      8.824887      0.936695
  H       0.262548      8.716656      2.368486
  H      -1.001955      7.505093      2.097945
19
Coordinates from ORCA-job 3_Cu4C3H9S3 E -7871.341818608007
  Cu     -5.265175      6.387015      3.517214
  S      -2.018772      7.273851      6.906161
  C      -3.083203      8.333494      7.947283
  H      -3.283615      7.814613      8.885843
  H      -4.034785      8.543589      7.458571
  H      -2.581995      9.276084      8.169267
  S      -5.891449      7.696339      1.539103
  C      -7.133509      8.777791      2.331186
  H      -7.106138      9.775193      1.891335
  H      -6.963396      8.858538      3.405046
  H      -8.124648      8.351481      2.169208
  Cu     -3.784826      6.237378      5.553570
  Cu     -3.941662      8.570594      2.406980
  Cu     -2.132613      8.386727      4.894353
  S      -1.955839      9.605171      2.950922
  C      -0.789936      8.544202      2.022346
  H      -0.822819      8.816511      0.967214
  H       0.219804      8.707842      2.399410
  H      -1.037982      7.489493      2.122776
19
Coordinates from ORCA-job 3_Cu4C3H9S3 E -7871.353222943416
  Cu     -5.217968      6.400787      3.516283
  S      -2.042289      7.293211      6.832478
  C      -3.117053      8.342074      7.875922
  H      -3.314613      7.817711      8.811968
  H      -4.069052      8.545131      7.384977
  H      -2.622922      9.287443      8.101516
  S      -5.828007      7.706351      1.586078
  C      -7.076616      8.776145      2.386291
  H      -7.054892      9.776261      1.952538
  H      -6.905082      8.849391      3.460499
  H      -8.064825      8.344214      2.221722
  Cu     -3.768449      6.254017      5.510644
  Cu     -3.931864      8.572782      2.420678
  Cu     -2.142568      8.390273      4.880891
  S      -2.001318      9.579060      2.982382
  C      -0.826527      8.530045      2.047917
  H      -0.861356      8.808316      0.994440
  H       0.181517      8.699180      2.426981
  H      -1.068671      7.473512      2.143584
19
Coordinates from ORCA-job 3_Cu4C3H9S3 E -7871.360720278034
  Cu     -5.169851      6.420481      3.518470
  S      -2.070942      7.310907      6.762020
  C      -3.154006      8.349424      7.809701
  H      -3.350321      7.818086      8.742002
  H      -4.105749      8.548609      7.316564
  H      -2.664733      9.295853      8.040946
  S      -5.768978      7.714669      1.636844
  C      -7.025316      8.773636      2.442546
  H      -7.010572      9.775127      2.011902
  H      -6.852007      8.842653      3.516804
  H      -8.010046      8.334315      2.277083
  Cu     -3.754185      6.276831      5.466897
  Cu     -3.920014      8.574187      2.433576
  Cu     -2.151261      8.393022      4.865717
  S      -2.040064      9.550894      3.008593
  C      -0.854601      8.516310      2.067074
  H      -0.891778      8.801423      1.015545
  H       0.151438      8.691855      2.448439
  H      -1.089570      7.457624      2.157066
19
Coordinates from ORCA-job 3_Cu4C3H9S3 E -7871.363822450983
  Cu     -5.118080      6.447343      3.520487
  S      -2.110206      7.327031      6.699619
  C      -3.203657      8.356096      7.748479
  H      -3.402711      7.817108      8.675700
  H      -4.153098      8.552954      7.249855
  H      -2.718565      9.302580      7.987724
  S      -5.720400      7.721537      1.695163
  C      -6.982324      8.770133      2.509075
  H      -6.976428      9.772331      2.080106
  H      -6.803650      8.836180      3.582708
  H      -7.963649      8.322390      2.346514
  Cu     -3.737865      6.307001      5.421184
  Cu     -3.902881      8.574354      2.444290
  Cu     -2.156326      8.394657      4.846314
  S      -2.062348      9.519281      3.022247
  C      -0.864365      8.502428      2.072516
  H      -0.904683      8.795481      1.023349
  H       0.139188      8.685784      2.456577
  H      -1.090510      7.441234      2.155881
19
Coordinates from ORCA-job 3_Cu4C3H9S3 E -7871.364622714692
  Cu     -5.083874      6.452056      3.505108
  S      -2.134414      7.339343      6.695159
  C      -3.253149      8.361820      7.724118
  H      -3.458850      7.824595      8.650853
  H      -4.197700      8.545366      7.211234
  H      -2.781317      9.314514      7.965102
  S      -5.722360      7.731828      1.720703
  C      -6.974348      8.769573      2.564007
  H      -6.973195      9.777409      2.148496
  H      -6.782378      8.820292      3.636225
  H      -7.957304      8.323532      2.407051
  Cu     -3.712366      6.312762      5.394895
  Cu     -3.887596      8.577748      2.440577
  Cu     -2.147931      8.398687      4.833684
  S      -2.039387      9.508788      3.004484
  C      -0.840633      8.492785      2.054263
  H      -0.881888      8.786032      1.005239
  H       0.162644      8.677224      2.438391
  H      -1.066511      7.431553      2.138199
19
Coordinates from ORCA-job 3_Cu4C3H9S3 E -7871.366133015337
  Cu     -5.040168      6.482414      3.492710
  S      -2.187918      7.345288      6.700918
  C      -3.327953      8.364643      7.708941
  H      -3.549725      7.824823      8.630272
  H      -4.262797      8.545364      7.176832
  H      -2.862146      9.317762      7.959253
  S      -5.742949      7.734939      1.770315
  C      -6.982831      8.765381      2.639521
  H      -6.991692      9.774476      2.227518
  H      -6.770729      8.811101      3.708562
  H      -7.966110      8.315289      2.497892
  Cu     -3.684140      6.344521      5.362746
  Cu     -3.860638      8.576955      2.435169
  Cu     -2.134854      8.398833      4.810357
  S      -1.983211      9.488854      2.961393
  C      -0.780111      8.482874      2.008860
  H      -0.823921      8.779934      0.961217
  H       0.221455      8.672139      2.394585
  H      -1.002118      7.420316      2.090730
19
Coordinates from ORCA-job 3_Cu4C3H9S3 E -7871.366509008797
  Cu     -5.030520      6.498160      3.491545
  S      -2.204167      7.340242      6.709644
  C      -3.339031      8.362674      7.719039
  H      -3.564357      7.821181      8.638417
  H      -4.272218      8.550006      7.186325
  H      -2.867933      9.312435      7.972228
  S      -5.756493      7.730014      1.782350
  C      -6.996087      8.763603      2.646649
  H      -7.006358      9.770213      2.228625
  H      -6.782495      8.815720      3.715087
  H      -7.978685      8.311169      2.508534
  Cu     -3.678629      6.360193      5.356339
  Cu     -3.855047      8.574148      2.436566
  Cu     -2.135080      8.395921      4.804230
  S      -1.962717      9.485077      2.946092
  C      -0.759695      8.482329      1.994032
  H      -0.803988      8.780538      0.946790
  H       0.241364      8.672821      2.380315
  H      -0.980420      7.419460      2.074979
19
Coordinates from ORCA-job 3_Cu4C3H9S3 E -7871.366616678094
  Cu     -5.032031      6.509309      3.494650
  S      -2.202808      7.331439      6.716384
  C      -3.320372      8.358390      7.739243
  H      -3.542175      7.815128      8.658423
  H      -4.256460      8.556034      7.215527
  H      -2.839365      9.303270      7.992168
  S      -5.763265      7.722405      1.777779
  C      -7.009886      8.762657      2.622403
  H      -7.017749      9.765205      2.194611
  H      -6.804633      8.825843      3.691819
  H      -7.991076      8.308190      2.481088
  Cu     -3.681351      6.370823      5.358143
  Cu     -3.859431      8.572458      2.443075
  Cu     -2.143346      8.393688      4.805709
  S      -1.961489      9.489032      2.945672
  C      -0.760878      8.484487      1.995351
  H      -0.804284      8.782051      0.947849
  H       0.240501      8.673704      2.381529
  H      -0.982455      7.421794      2.076365
19
Coordinates from ORCA-job 3_Cu4C3H9S3 E -7871.366917380888
  Cu     -5.035066      6.529024      3.500666
  S      -2.191266      7.315940      6.724134
  C      -3.274685      8.349577      7.775042
  H      -3.487049      7.803083      8.694592
  H      -4.217442      8.565661      7.271206
  H      -2.775822      9.285755      8.025924
  S      -5.768737      7.709080      1.762283
  C      -7.030463      8.760829      2.567452
  H      -7.032593      9.755874      2.122296
  H      -6.843878      8.844353      3.638754
  H      -8.008883      8.303010      2.417655
  Cu     -3.687011      6.389925      5.361438
  Cu     -3.872768      8.572396      2.458773
  Cu     -2.163863      8.393215      4.812541
  S      -1.972002      9.499596      2.954286
  C      -0.776963      8.487690      2.007887
  H      -0.817960      8.782242      0.959299
  H       0.225625      8.672930      2.393205
  H      -1.001730      7.425725      2.090357
19
Coordinates from ORCA-job 3_Cu4C3H9S3 E -7871.367131011832
  Cu     -5.032987      6.547877      3.502986
  S      -2.172014      7.306257      6.726765
  C      -3.227726      8.340799      7.804120
  H      -3.427511      7.791291      8.724818
  H      -4.178055      8.568531      7.320263
  H      -2.717257      9.271741      8.051365
  S      -5.766604      7.701273      1.741920
  C      -7.044142      8.758700      2.513312
  H      -7.040470      9.748871      2.057281
  H      -6.877133      8.855966      3.586570
  H      -8.019661      8.298363      2.351995
  Cu     -3.687411      6.408597      5.361055
  Cu     -3.888392      8.578755      2.476216
  Cu     -2.186019      8.400010      4.821930
  S      -1.989909      9.513226      2.968204
  C      -0.803063      8.487140      2.027222
  H      -0.841046      8.775715      0.976712
  H       0.201524      8.665890      2.410794
  H      -1.034679      7.426901      2.114258
19
Coordinates from ORCA-job 3_Cu4C3H9S3 E -7871.367231124823
  Cu     -5.023749      6.557665      3.497353
  S      -2.152463      7.309700      6.724066
  C      -3.202974      8.336453      7.814561
  H      -3.390371      7.785435      8.737080
  H      -4.159784      8.559963      7.341671
  H      -2.695467      9.270114      8.057750
  S      -5.758102      7.705672      1.724560
  C      -7.046566      8.757466      2.486303
  H      -7.040057      9.749484      2.034269
  H      -6.891837      8.851605      3.561664
  H      -8.019983      8.296719      2.313201
  Cu     -3.678459      6.418332      5.355225
  Cu     -3.897559      8.589579      2.487175
  Cu     -2.199093      8.411624      4.828001
  S      -2.003286      9.525170      2.978547
  C      -0.825641      8.481441      2.043280
  H      -0.861217      8.762750      0.990654
  H       0.181011      8.652880      2.424948
  H      -1.066959      7.423853      2.137482
19
Coordinates from ORCA-job 3_Cu4C3H9S3 E -7871.367313170416
  Cu     -5.010250      6.558922      3.486359
  S      -2.143051      7.322589      6.719914
  C      -3.207935      8.337163      7.808672
  H      -3.388345      7.785557      8.732267
  H      -4.167622      8.546499      7.335006
  H      -2.713279      9.278099      8.050187
  S      -5.750433      7.718432      1.718271
  C      -7.042339      8.757271      2.492965
  H      -7.037644      9.755240      2.054263
  H      -6.888633      8.837126      3.569681
  H      -8.014743      8.296877      2.313160
  Cu     -3.663762      6.419496      5.345886
  Cu     -3.896075      8.598893      2.488958
  Cu     -2.200156      8.421641      4.826767
  S      -2.002726      9.531286      2.978289
  C      -0.832279      8.473489      2.047465
  H      -0.866716      8.749248      0.993370
  H       0.175665      8.639625      2.427976
  H      -1.082232      7.418451      2.148332
19
Coordinates from ORCA-job 3_Cu4C3H9S3 E -7871.367317655632
  Cu     -4.986973      6.560702      3.467802
  S      -2.136987      7.345069      6.714687
  C      -3.230102      8.339582      7.794592
  H      -3.404923      7.786090      8.718120
  H      -4.190856      8.527063      7.313799
  H      -2.756881      9.291187      8.037020
  S      -5.742035      7.740242      1.716474
  C      -7.035546      8.756680      2.518638
  H      -7.037492      9.763550      2.100887
  H      -6.876778      8.814118      3.596133
  H      -8.006503      8.295252      2.333784
  Cu     -3.638817      6.421175      5.329695
  Cu     -3.888185      8.612721      2.488065
  Cu     -2.196601      8.436509      4.820685
  S      -1.991461      9.537930      2.970078
  C      -0.831666      8.460528      2.045964
  H      -0.864728      8.728675      0.989942
  H       0.177897      8.619459      2.425049
  H      -1.093917      7.409375      2.156374
19
Coordinates from ORCA-job 3_Cu4C3H9S3 E -7871.367403235730
  Cu     -4.940942      6.565762      3.431634
  S      -2.132354      7.388864      6.706565
  C      -3.281126      8.344216      7.764312
  H      -3.451339      7.785858      8.685701
  H      -4.239295      8.493583      7.265065
  H      -2.848205      9.313323      8.012322
  S      -5.729847      7.782554      1.719160
  C      -7.022270      8.754592      2.576908
  H      -7.040640      9.776080      2.196959
  H      -6.847536      8.772770      3.653445
  H      -7.990555      8.289067      2.388663
  Cu     -3.589742      6.426066      5.297749
  Cu     -3.869946      8.639915      2.484794
  Cu     -2.187053      8.465613      4.806711
  S      -1.962243      9.549893      2.948779
  C      -0.824120      8.435579      2.038518
  H      -0.854467      8.689180      0.978953
  H       0.188411      8.580661      2.414885
  H      -1.109287      7.392329      2.166664
19
Coordinates from ORCA-job 3_Cu4C3H9S3 E -7871.367421115016
  Cu     -4.879160      6.575300      3.383920
  S      -2.132646      7.446753      6.697047
  C      -3.353520      8.349523      7.719522
  H      -3.524282      7.783432      8.635976
  H      -4.302351      8.454525      7.191623
  H      -2.972133      9.337226      7.978320
  S      -5.717042      7.838320      1.728481
  C      -7.002230      8.750193      2.659979
  H      -7.045480      9.787038      2.326655
  H      -6.800088      8.722600      3.731664
  H      -7.967108      8.276917      2.474069
  Cu     -3.524205      6.435412      5.254907
  Cu     -3.844397      8.677730      2.480645
  Cu     -2.173617      8.505858      4.787080
  S      -1.918865      9.566414      2.917372
  C      -0.812540      8.402803      2.027702
  H      -0.838934      8.636196      0.963497
  H       0.203887      8.528453      2.400256
  H      -1.127847      7.371213      2.179073
19
Coordinates from ORCA-job 3_Cu4C3H9S3 E -7871.367461214133
  Cu     -4.819530      6.587286      3.339002
  S      -2.137088      7.501607      6.687614
  C      -3.424112      8.353446      7.671280
  H      -3.600738      7.778566      8.581051
  H      -4.359058      8.422192      7.113206
  H      -3.090145      9.354786      7.942937
  S      -5.706074      7.891077      1.741507
  C      -6.979041      8.744176      2.742263
  H      -7.048397      9.792080      2.450489
  H      -6.746165      8.679071      3.806202
  H      -7.940460      8.261181      2.563970
  Cu     -3.461585      6.447262      5.213444
  Cu     -3.819816      8.716685      2.478264
  Cu     -2.161486      8.547000      4.768058
  S      -1.875759      9.584117      2.886579
  C      -0.804139      8.371753      2.019573
  H      -0.826210      8.583947      0.950842
  H       0.216104      8.476757      2.388058
  H      -1.148860      7.352916      2.193449
19
Coordinates from ORCA-job 3_Cu4C3H9S3 E -7871.367497320841
  Cu     -4.770082      6.599845      3.303312
  S      -2.142094      7.545823      6.678345
  C      -3.480805      8.355324      7.627299
  H      -3.666001      7.771539      8.529640
  H      -4.401271      8.399757      7.043065
  H      -3.184061      9.364814      7.911965
  S      -5.696360      7.933712      1.754050
  C      -6.956253      8.737481      2.809845
  H      -7.049236      9.791911      2.549608
  H      -6.695682      8.646973      3.865593
  H      -7.914142      8.244083      2.641453
  Cu     -3.410779      6.459774      5.178818
  Cu     -3.800014      8.752672      2.478695
  Cu     -2.152893      8.584581      4.752673
  S      -1.840164      9.601605      2.861772
  C      -0.802027      8.346304      2.016634
  H      -0.819900      8.538491      0.943942
  H       0.221583      8.431534      2.381152
  H      -1.172374      7.339679      2.209926
19
Coordinates from ORCA-job 3_Cu4C3H9S3 E -7871.367535842526
  Cu     -4.733261      6.610481      3.279009
  S      -2.145586      7.576741      6.668659
  C      -3.520912      8.355452      7.589750
  H      -3.716899      7.763153      8.484274
  H      -4.428423      8.387907      6.984655
  H      -3.249490      9.368408      7.887540
  S      -5.686825      7.963958      1.764052
  C      -6.935188      8.730652      2.859551
  H      -7.048748      9.788010      2.619635
  H      -6.651956      8.626930      3.908318
  H      -7.889567      8.226750      2.702511
  Cu     -3.374992      6.470389      5.152380
  Cu     -3.785593      8.784890      2.481941
  Cu     -2.147813      8.617419      4.741582
  S      -1.813724      9.618899      2.844461
  C      -0.806230      8.327707      2.019006
  H      -0.820038      8.501795      0.942956
  H       0.220346      8.394542      2.379603
  H      -1.197657      7.331821      2.227906
19
Coordinates from ORCA-job 3_Cu4C3H9S3 E -7871.367586753230
  Cu     -4.722357      6.612865      3.274656
  S      -2.144334      7.582686      6.662039
  C      -3.528814      8.354563      7.575290
  H      -3.730495      7.759775      8.466982
  H      -4.432354      8.386855      6.964214
  H      -3.262546      9.367452      7.878221
  S      -5.680103      7.970543      1.765823
  C      -6.925651      8.727207      2.871481
  H      -7.046174      9.784804      2.635672
  H      -6.636152      8.622228      3.918444
  H      -7.878981      8.219672      2.719345
  Cu     -3.367419      6.472767      5.143436
  Cu     -3.782330      8.800230      2.486190
  Cu     -2.147962      8.632040      4.739377
  S      -1.807773      9.628779      2.842185
  C      -0.813875      8.322751      2.024704
  H      -0.825663      8.488730      0.947186
  H       0.214172      8.380695      2.383117
  H      -1.213747      7.331264      2.239430
19
Coordinates from ORCA-job 3_Cu4C3H9S3 E -7871.367599094895
  Cu     -4.706134      6.614377      3.264119
  S      -2.144852      7.595523      6.656649
  C      -3.543860      8.355395      7.558768
  H      -3.745191      7.761844      8.451408
  H      -4.443728      8.375000      6.941685
  H      -3.290781      9.372240      7.859626
  S      -5.674178      7.983422      1.769242
  C      -6.915234      8.724784      2.890971
  H      -7.037846      9.785198      2.669474
  H      -6.620186      8.606126      3.934973
  H      -7.869127      8.218568      2.737702
  Cu     -3.352824      6.474308      5.131237
  Cu     -3.777527      8.814159      2.487969
  Cu     -2.146467      8.645777      4.736065
  S      -1.800231      9.635480      2.837969
  C      -0.818142      8.314995      2.027349
  H      -0.829491      8.474159      0.948819
  H       0.210633      8.365698      2.384706
  H      -1.227392      7.328852      2.249057
19
Coordinates from ORCA-job 3_Cu4C3H9S3 E -7871.367614253137
  Cu     -4.692746      6.615205      3.255428
  S      -2.145253      7.605914      6.652871
  C      -3.554280      8.356344      7.548467
  H      -3.751271      7.766075      8.444286
  H      -4.452767      8.361493      6.928993
  H      -3.312720      9.377612      7.843367
  S      -5.669483      7.993918      1.771565
  C      -6.908562      8.723417      2.904114
  H      -7.028985      9.786816      2.696690
  H      -6.612143      8.589483      3.945943
  H      -7.863748      8.221197      2.745579
  Cu     -3.341215      6.475247      5.121168
  Cu     -3.774608      8.824663      2.489028
  Cu     -2.145482      8.656107      4.734475
  S      -1.795654      9.638771      2.835551
  C      -0.820986      8.308400      2.028706
  H      -0.833032      8.463833      0.949740
  H       0.207940      8.354867      2.385918
  H      -1.237559      7.326542      2.255901
19
Coordinates from ORCA-job 3_Cu4C3H9S3 E -7871.367625904447
  Cu     -4.681365      6.617963      3.247464
  S      -2.146529      7.615958      6.651132
  C      -3.564305      8.356820      7.541149
  H      -3.758946      7.766753      8.437606
  H      -4.460664      8.352649      6.918543
  H      -3.332001      9.380665      7.834312
  S      -5.667082      8.003842      1.774126
  C      -6.904435      8.722177      2.915881
  H      -7.025988      9.787279      2.718408
  H      -6.605109      8.578468      3.955609
  H      -7.859468      8.220489      2.754798
  Cu     -3.330351      6.478072      5.113072
  Cu     -3.771494      8.833361      2.488910
  Cu     -2.143745      8.664923      4.732680
  S      -1.789494      9.640553      2.831417
  C      -0.821401      8.302165      2.028292
  H      -0.833927      8.454549      0.948975
  H       0.207627      8.345362      2.385391
  H      -1.243879      7.323857      2.260023
19
Coordinates from ORCA-job 3_Cu4C3H9S3 E -7871.367639090595
  Cu     -4.676070      6.620342      3.244072
  S      -2.146766      7.620844      6.651201
  C      -3.566611      8.356662      7.541956
  H      -3.758544      7.765474      8.438229
  H      -4.462854      8.349211      6.919219
  H      -3.337686      9.381213      7.835137
  S      -5.666200      8.008965      1.774478
  C      -6.905347      8.721666      2.917732
  H      -7.028029      9.787275      2.723980
  H      -6.606084      8.574284      3.956964
  H      -7.859398      8.219069      2.753846
  Cu     -3.325873      6.480550      5.109337
  Cu     -3.770781      8.838807      2.488039
  Cu     -2.142279      8.670202      4.733135
  S      -1.786416      9.639832      2.829385
  C      -0.820980      8.298415      2.027304
  H      -0.834280      8.450404      0.948020
  H       0.207940      8.340873      2.384580
  H      -1.246298      7.321817      2.261173
19
Coordinates from ORCA-job 3_Cu4C3H9S3 E -7871.367632833848
  Cu     -4.666629      6.625374      3.237600
  S      -2.147453      7.629940      6.650348
  C      -3.573839      8.356207      7.538014
  H      -3.765799      7.761178      8.431696
  H      -4.467689      8.346498      6.911891
  H      -3.350849      9.380930      7.835165
  S      -5.664527      8.018187      1.776058
  C      -6.903621      8.720064      2.925723
  H      -7.032044      9.785858      2.736726
  H      -6.600475      8.569926      3.963430
  H      -7.855502      8.213345      2.762133
  Cu     -3.316863      6.485644      5.102847
  Cu     -3.768052      8.848236      2.486900
  Cu     -2.139575      8.679554      4.732073
  S      -1.779604      9.641247      2.824726
  C      -0.821368      8.292340      2.026897
  H      -0.834670      8.441114      0.947192
  H       0.207831      8.331361      2.383685
  H      -1.251827      7.318903      2.264683
19
Coordinates from ORCA-job 3_Cu4C3H9S3 E -7871.367631417028
  Cu     -4.664753      6.628870      3.236574
  S      -2.146417      7.632516      6.650727
  C      -3.572534      8.355267      7.541053
  H      -3.765191      7.755644      8.431477
  H      -4.466147      8.349974      6.914585
  H      -3.348868      9.378246      7.843809
  S      -5.664021      8.021286      1.774880
  C      -6.905905      8.719269      2.923465
  H      -7.039703      9.784071      2.732373
  H      -6.601912      8.573042      3.961455
  H      -7.855215      8.207503      2.760836
  Cu     -3.315570      6.489202      5.101607
  Cu     -3.768051      8.853121      2.484844
  Cu     -2.137175      8.683932      4.733340
  S      -1.777522      9.640958      2.823447
  C      -0.822004      8.289991      2.027022
  H      -0.835154      8.437855      0.947172
  H       0.207401      8.327826      2.383402
  H      -1.253814      7.317335      2.265721
19
Coordinates from ORCA-job 3_Cu4C3H9S3 E -7871.367641760830
  Cu     -4.658233      6.634205      3.231998
  S      -2.145586      7.639116      6.649731
  C      -3.576235      8.354357      7.538319
  H      -3.771091      7.749487      8.424693
  H      -4.467775      8.351466      6.908899
  H      -3.355561      9.376041      7.847789
  S      -5.662312      8.028330      1.774757
  C      -6.904615      8.717528      2.927819
  H      -7.045949      9.781623      2.737884
  H      -6.596837      8.572979      3.964923
  H      -7.851156      8.199893      2.767730
  Cu     -3.309393      6.494594      5.097144
  Cu     -3.766373      8.861564      2.482375
  Cu     -2.133627      8.691885      4.733360
  S      -1.773009      9.642956      2.820519
  C      -0.824195      8.285535      2.028330
  H      -0.836540      8.429689      0.947910
  H       0.205717      8.319483      2.383815
  H      -1.259785      7.315175      2.269791
19
Coordinates from ORCA-job 3_Cu4C3H9S3 E -7871.367652231806
  Cu     -4.655683      6.637516      3.229949
  S      -2.143908      7.641516      6.649180
  C      -3.576021      8.353636      7.537663
  H      -3.772979      7.745384      8.421272
  H      -4.466720      8.353941      6.907041
  H      -3.355662      9.373989      7.851880
  S      -5.661291      8.031362      1.773220
  C      -6.904203      8.716426      2.927911
  H      -7.050343      9.779808      2.737354
  H      -6.594638      8.574292      3.964825
  H      -7.849018      8.194953      2.770002
  Cu     -3.307080      6.497958      5.095342
  Cu     -3.766456      8.866421      2.479114
  Cu     -2.130254      8.695952      4.734763
  S      -1.772285      9.644297      2.820293
  C      -0.826914      8.283695      2.030378
  H      -0.838364      8.425455      0.949551
  H       0.203391      8.315077      2.385197
  H      -1.264128      7.314227      2.272853
19
Coordinates from ORCA-job 3_Cu4C3H9S3 E -7871.367648271777
  Cu     -4.649568      6.640591      3.225183
  S      -2.143270      7.645785      6.647869
  C      -3.580388      8.353479      7.531941
  H      -3.779027      7.744290      8.414564
  H      -4.469163      8.351692      6.898557
  H      -3.363929      9.374232      7.847585
  S      -5.659917      8.036026      1.773190
  C      -6.900533      8.715079      2.933978
  H      -7.049294      9.778798      2.747347
  H      -6.587801      8.570103      3.969587
  H      -7.845018      8.192482      2.777618
  Cu     -3.300971      6.501077      5.090984
  Cu     -3.765621      8.872341      2.476174
  Cu     -2.126888      8.701245      4.735246
  S      -1.770555      9.646732      2.819331
  C      -0.830031      8.280799      2.032719
  H      -0.840666      8.419173      0.951390
  H       0.200601      8.308690      2.387038
  H      -1.270518      7.313292      2.277486
19
Coordinates from ORCA-job 3_Cu4C3H9S3 E -7871.367629525516
  Cu     -4.645591      6.641138      3.221783
  S      -2.143399      7.646873      6.647325
  C      -3.583914      8.353896      7.526828
  H      -3.783543      7.746535      8.410524
  H      -4.471284      8.348387      6.891442
  H      -3.370201      9.375836      7.840370
  S      -5.659709      8.037417      1.773378
  C      -6.897061      8.714492      2.939086
  H      -7.044677      9.779005      2.756330
  H      -6.582208      8.565268      3.973489
  H      -7.842732      8.193784      2.783372
  Cu     -3.296883      6.501653      5.088053
  Cu     -3.765773      8.874964      2.473436
  Cu     -2.124354      8.703245      4.736275
  S      -1.770866      9.648017      2.819723
  C      -0.832085      8.279637      2.034381
  H      -0.842413      8.416559      0.952858
  H       0.198572      8.305977      2.388759
  H      -1.274435      7.313223      2.280377
19
Coordinates from ORCA-job 3_Cu4C3H9S3 E -7871.367647463273
  Cu     -4.642359      6.640577      3.219128
  S      -2.144659      7.646995      6.647301
  C      -3.588126      8.354575      7.521954
  H      -3.788532      7.749750      8.407223
  H      -4.473986      8.345050      6.884484
  H      -3.376693      9.377881      7.832398
  S      -5.660210      8.037568      1.774532
  C      -6.893826      8.714293      2.944692
  H      -7.039205      9.779641      2.765324
  H      -6.576801      8.560922      3.977845
  H      -7.841030      8.196195      2.789522
  Cu     -3.293488      6.501093      5.085685
  Cu     -3.765775      8.876071      2.471748
  Cu     -2.122846      8.704005      4.736816
  S      -1.770908      9.648455      2.819795
  C      -0.832621      8.278924      2.034810
  H      -0.843114      8.415627      0.953300
  H       0.197879      8.304971      2.389543
  H      -1.276256      7.313313      2.281687
19
Coordinates from ORCA-job 3_Cu4C3H9S3 E -7871.367640150318
  Cu     -4.642173      6.639142      3.218872
  S      -2.145949      7.645137      6.648084
  C      -3.589811      8.355125      7.520386
  H      -3.791038      7.751986      8.406605
  H      -4.474891      8.344572      6.881868
  H      -3.378078      9.378913      7.828927
  S      -5.661375      8.035660      1.775335
  C      -6.892718      8.714586      2.946788
  H      -7.036261      9.780190      2.767632
  H      -6.574513      8.560349      3.979438
  H      -7.840924      8.198109      2.792408
  Cu     -3.293221      6.499640      5.085543
  Cu     -3.766248      8.875045      2.470640
  Cu     -2.122142      8.702737      4.737526
  S      -1.771691      9.647626      2.820307
  C      -0.831904      8.279407      2.034248
  H      -0.842814      8.417421      0.952959
  H       0.198361      8.306680      2.389419
  H      -1.275167      7.313580      2.280803
19
Coordinates from ORCA-job 3_Cu4C3H9S3 E -7871.367641526059
  Cu     -4.640554      6.639381      3.217879
  S      -2.146898      7.646159      6.648164
  C      -3.592382      8.355276      7.518496
  H      -3.794384      7.751814      8.404300
  H      -4.476445      8.344432      6.878594
  H      -3.381562      9.379115      7.827498
  S      -5.661475      8.036518      1.776400
  C      -6.891588      8.714415      2.949755
  H      -7.035897      9.780004      2.771102
  H      -6.571780      8.560053      3.981876
  H      -7.839657      8.197443      2.796299
  Cu     -3.291623      6.499846      5.084507
  Cu     -3.765545      8.876023      2.470552
  Cu     -2.121743      8.703726      4.737087
  S      -1.770469      9.647572      2.819421
  C      -0.831464      8.278584      2.033727
  H      -0.842555      8.416575      0.952457
  H       0.198781      8.305793      2.388906
  H      -1.275315      7.313173      2.280770
19
Coordinates from ORCA-job 3_Cu4C3H9S3 E -7871.367642276546
  Cu     -4.641580      6.638889      3.218761
  S      -2.147192      7.645366      6.648586
  C      -3.592139      8.355331      7.519083
  H      -3.794638      7.751580      8.404565
  H      -4.476152      8.345695      6.879113
  H      -3.380409      9.378830      7.828629
  S      -5.661818      8.035624      1.776566
  C      -6.891927      8.714611      2.949284
  H      -7.036501      9.779958      2.769345
  H      -6.571983      8.561651      3.981557
  H      -7.839853      8.197221      2.796425
  Cu     -3.292667      6.499298      5.085339
  Cu     -3.765582      8.875122      2.470532
  Cu     -2.121767      8.702770      4.737110
  S      -1.770789      9.646926      2.819623
  C      -0.830868      8.279065      2.033194
  H      -0.842098      8.417812      0.952026
  H       0.199350      8.306985      2.388386
  H      -1.273944      7.313172      2.279663
