25
Coordinates from ORCA-job 4_Cu5C4H12S4 E -9944.801551088680
  Cu     -6.044470      7.734952      3.792725
  Cu     -3.363717      8.531787      3.399517
  S      -7.758723      5.754024      3.916222
  C      -9.307371      6.637672      4.319634
  H      -9.118373      7.689279      4.536570
  H      -9.810277      6.176260      5.169767
  H      -9.972527      6.581260      3.456140
  Cu     -6.458555      5.629469      5.932972
  S      -4.688084      5.703646      7.601120
  H      -6.036831      6.728963      9.347102
  H      -5.561901      7.935676      8.140365
  C      -5.224392      7.064297      8.701509
  H      -4.384417      7.364836      9.329265
  Cu     -3.951106      7.074220      5.569646
  Cu     -5.360806      9.848049      1.730503
  S      -7.528742      9.624701      2.742135
  C      -8.573289      8.667143      1.587193
  H      -9.598791      8.675385      1.960712
  H      -8.567567      9.114374      0.592963
  H      -8.242682      7.630341      1.520863
  S      -2.971911      9.892400      1.267914
  C      -2.764839      8.522282      0.072191
  H      -1.704975      8.275894     -0.004889
  H      -3.303630      7.625946      0.379405
  H      -3.122869      8.824185     -0.912677
25
Coordinates from ORCA-job 4_Cu5C4H12S4 E -9944.821386592406
  Cu     -6.051533      7.734753      3.790678
  Cu     -3.385923      8.534769      3.402952
  S      -7.723286      5.775801      3.908282
  C      -9.255981      6.668805      4.334109
  H      -9.056021      7.725652      4.551203
  H      -9.754959      6.204755      5.193898
  H      -9.932166      6.615999      3.471389
  Cu     -6.452761      5.641051      5.900030
  S      -4.701112      5.714794      7.535144
  H      -6.067189      6.717395      9.281489
  H      -5.605319      7.942504      8.073721
  C      -5.253636      7.068844      8.634596
  H      -4.413106      7.377969      9.268987
  Cu     -3.967849      7.070136      5.554924
  Cu     -5.372913      9.836290      1.761614
  S      -7.501947      9.604701      2.768110
  C      -8.520564      8.638976      1.602894
  H      -9.554768      8.643049      1.969919
  H      -8.506507      9.089192      0.602561
  H      -8.180348      7.597521      1.542368
  S      -3.017570      9.879582      1.316878
  C      -2.825027      8.515185      0.113185
  H      -1.760698      8.260351      0.030926
  H      -3.375512      7.615830      0.412634
  H      -3.184149      8.833136     -0.873626
25
Coordinates from ORCA-job 4_Cu5C4H12S4 E -9944.841309681326
  Cu     -6.054620      7.734667      3.789783
  Cu     -3.410893      8.537431      3.407698
  S      -7.681845      5.795632      3.906134
  C      -9.206244      6.693174      4.347052
  H      -9.001876      7.749610      4.567643
  H      -9.702628      6.226225      5.208305
  H      -9.887375      6.645451      3.486544
  Cu     -6.445125      5.653416      5.864651
  S      -4.718167      5.727576      7.460715
  H      -6.094291      6.718722      9.203487
  H      -5.635614      7.953384      8.002150
  C      -5.279688      7.078120      8.560121
  H      -4.442139      7.388973      9.199704
  Cu     -3.986239      7.066247      5.537615
  Cu     -5.384728      9.823808      1.795781
  S      -7.467094      9.587047      2.792371
  C      -8.470410      8.617454      1.618902
  H      -9.507337      8.616224      1.981493
  H      -8.453535      9.070723      0.618673
  H      -8.124626      7.576694      1.557771
  S      -3.071059      9.864790      1.370858
  C      -2.886313      8.503416      0.162346
  H      -1.821635      8.246780      0.074133
  H      -3.438742      7.602282      0.457101
  H      -3.248624      8.829195     -0.822167
25
Coordinates from ORCA-job 4_Cu5C4H12S4 E -9944.858540768870
  Cu     -6.054567      7.734669      3.789799
  Cu     -3.436013      8.538953      3.413237
  S      -7.639199      5.812837      3.906932
  C      -9.161284      6.709488      4.361222
  H      -8.956939      7.764629      4.585505
  H      -9.652868      6.238440      5.222553
  H      -9.847259      6.665061      3.504779
  Cu     -6.434525      5.666082      5.829470
  S      -4.734354      5.741953      7.387400
  H      -6.118080      6.723810      9.127722
  H      -5.662555      7.964831      7.932808
  C      -5.303692      7.089303      8.488033
  H      -4.469632      7.401338      9.131070
  Cu     -4.004390      7.063501      5.519538
  Cu     -5.393922      9.811182      1.831370
  S      -7.429790      9.572123      2.814745
  C      -8.424054      8.603742      1.631199
  H      -9.462722      8.599028      1.987815
  H      -8.403303      9.061357      0.633406
  H      -8.076383      7.564331      1.566916
  S      -3.123136      9.848469      1.424385
  C      -2.944496      8.489889      0.210613
  H      -1.880852      8.231940      0.117636
  H      -3.497921      7.588379      0.501484
  H      -3.308909      8.821706     -0.770771
25
Coordinates from ORCA-job 4_Cu5C4H12S4 E -9944.872399961709
  Cu     -6.054195      7.734681      3.789907
  Cu     -3.462951      8.538956      3.419259
  S      -7.597248      5.829278      3.907399
  C      -9.120497      6.720411      4.375598
  H      -8.918398      7.774422      4.604402
  H      -9.605221      6.243060      5.236765
  H      -9.812131      6.678313      3.524019
  Cu     -6.421016      5.680347      5.793448
  S      -4.747779      5.758645      7.315963
  H      -6.138450      6.729712      9.056140
  H      -5.688055      7.976870      7.866564
  C      -5.325313      7.101880      8.419440
  H      -4.494343      7.415629      9.064927
  Cu     -4.023897      7.062180      5.500057
  Cu     -5.401027      9.797102      1.869249
  S      -7.393288      9.557919      2.837017
  C      -8.381390      8.595197      1.641010
  H      -9.422112      8.587933      1.990526
  H      -8.355271      9.059463      0.646925
  H      -8.033258      7.556866      1.571689
  S      -3.171756      9.830009      1.477836
  C      -2.998726      8.475148      0.257222
  H      -1.936291      8.215363      0.160550
  H      -3.554198      7.574008      0.544027
  H      -3.364032      8.813649     -0.721071
25
Coordinates from ORCA-job 4_Cu5C4H12S4 E -9944.882543734522
  Cu     -6.055514      7.734646      3.789526
  Cu     -3.493115      8.536887      3.425601
  S      -7.557343      5.845840      3.904729
  C      -9.084332      6.726202      4.388662
  H      -8.886470      7.779402      4.623430
  H      -9.559943      6.239642      5.249483
  H      -9.782443      6.685669      3.542396
  Cu     -6.404083      5.697307      5.755873
  S      -4.756622      5.778507      7.247993
  H      -6.153897      6.735355      8.990859
  H      -5.712721      7.989616      7.805277
  C      -5.343603      7.116087      8.355930
  H      -4.515070      7.433026      9.002656
  Cu     -4.046062      7.062760      5.478546
  Cu     -5.405928      9.780486      1.910308
  S      -7.360181      9.543441      2.860848
  C      -8.343596      8.591513      1.649382
  H      -9.386862      8.582426      1.990972
  H      -8.310458      9.065445      0.660317
  H      -7.995893      7.553860      1.572748
  S      -3.214493      9.808679      1.530855
  C      -3.047345      8.459034      0.301339
  H      -1.986137      8.195953      0.202368
  H      -3.607085      7.559050      0.582838
  H      -3.411648      8.806207     -0.674070
25
Coordinates from ORCA-job 4_Cu5C4H12S4 E -9944.889153375429
  Cu     -6.059390      7.734539      3.788405
  Cu     -3.526649      8.531971      3.432117
  S      -7.519906      5.861911      3.895563
  C      -9.053433      6.724188      4.398146
  H      -8.862831      7.776776      4.641272
  H      -9.517173      6.224459      5.257890
  H      -9.758528      6.684410      3.557455
  Cu     -6.382283      5.717854      5.716728
  S      -4.758977      5.802580      7.187973
  H      -6.163417      6.740704      8.935659
  H      -5.738125      8.002987      7.752007
  C      -5.358471      7.132825      8.300832
  H      -4.532115      7.456295      8.947090
  Cu     -4.071127      7.066003      5.455042
  Cu     -5.407374      9.760519      1.955349
  S      -7.332651      9.529227      2.888842
  C      -8.312568      8.595290      1.657851
  H      -9.358706      8.585168      1.991007
  H      -8.270682      9.082977      0.675836
  H      -7.966554      7.557994      1.570266
  S      -3.247287      9.783607      1.580686
  C      -3.088448      8.440701      0.340213
  H      -2.028982      8.170979      0.240576
  H      -3.656275      7.543553      0.614487
  H      -3.448892      8.799523     -0.632426
25
Coordinates from ORCA-job 4_Cu5C4H12S4 E -9944.893319764349
  Cu     -6.063620      7.734422      3.787182
  Cu     -3.559333      8.523461      3.438478
  S      -7.482844      5.873189      3.875902
  C      -9.027298      6.706989      4.398168
  H      -8.849355      7.759136      4.652891
  H      -9.476967      6.189257      5.254842
  H      -9.738126      6.666402      3.562024
  Cu     -6.353431      5.741348      5.678255
  S      -4.753858      5.831520      7.145947
  H      -6.168652      6.748000      8.896951
  H      -5.768285      8.016690      7.710315
  C      -5.372351      7.154216      8.259896
  H      -4.549189      7.491254      8.903401
  Cu     -4.095750      7.072872      5.432066
  Cu     -5.402355      9.737989      2.003636
  S      -7.311295      9.519616      2.925434
  C      -8.291412      8.613836      1.671538
  H      -9.339999      8.604290      1.997779
  H      -8.240244      9.120188      0.699361
  H      -7.949906      7.576490      1.567385
  S      -3.263905      9.754342      1.619380
  C      -3.120904      8.417991      0.367718
  H      -2.064889      8.134516      0.268909
  H      -3.703270      7.527650      0.633812
  H      -3.473606      8.791375     -0.602402
25
Coordinates from ORCA-job 4_Cu5C4H12S4 E -9944.896780268773
  Cu     -6.066196      7.734348      3.786439
  Cu     -3.586187      8.510177      3.443173
  S      -7.448340      5.876751      3.847259
  C      -9.006698      6.675481      4.386142
  H      -8.845518      7.727233      4.653600
  H      -9.442264      6.138104      5.238005
  H      -9.720656      6.632197      3.552564
  Cu     -6.319041      5.765596      5.644664
  S      -4.743222      5.862156      7.129112
  H      -6.172670      6.757687      8.878591
  H      -5.800482      8.029488      7.685133
  C      -5.386170      7.178242      8.238607
  H      -4.568222      7.533980      8.878650
  Cu     -4.116600      7.084780      5.413537
  Cu     -5.390014      9.715069      2.050774
  S      -7.297300      9.517436      2.968134
  C      -8.282114      8.646194      1.692233
  H      -9.332113      8.639216      2.014594
  H      -8.222652      9.172829      0.731358
  H      -7.947967      7.608555      1.568354
  S      -3.262319      9.724055      1.639763
  C      -3.142672      8.392958      0.378688
  H      -2.091922      8.090488      0.280304
  H      -3.743209      7.512798      0.638077
  H      -3.486296      8.781223     -0.588887
25
Coordinates from ORCA-job 4_Cu5C4H12S4 E -9944.900578451330
  Cu     -6.070869      7.734215      3.785092
  Cu     -3.610959      8.491624      3.445378
  S      -7.427554      5.875670      3.816453
  C      -8.996880      6.642090      4.371565
  H      -8.850612      7.693185      4.649443
  H      -9.418307      6.088219      5.219679
  H      -9.714116      6.595674      3.541056
  Cu     -6.283503      5.789592      5.616896
  S      -4.729046      5.888925      7.134067
  H      -6.173480      6.765009      8.879797
  H      -5.823534      8.039431      7.681974
  C      -5.394801      7.197916      8.238832
  H      -4.582753      7.569539      8.876925
  Cu     -4.137307      7.102010      5.398142
  Cu     -5.373603      9.692548      2.093604
  S      -7.296275      9.519136      3.005262
  C      -8.283370      8.679825      1.709295
  H      -9.334658      8.675850      2.027265
  H      -8.214849      9.223613      0.758890
  H      -7.956271      7.642216      1.568633
  S      -3.246306      9.698146      1.643568
  C      -3.148796      8.372875      0.374182
  H      -2.103231      8.054208      0.274529
  H      -3.763815      7.501616      0.628568
  H      -3.485951      8.773907     -0.590228
25
Coordinates from ORCA-job 4_Cu5C4H12S4 E -9944.903867343572
  Cu     -6.075608      7.734081      3.783727
  Cu     -3.632017      8.470513      3.446392
  S      -7.420037      5.866651      3.787915
  C      -8.996074      6.608652      4.355705
  H      -8.861261      7.659412      4.639405
  H      -9.406039      6.044250      5.202032
  H      -9.715755      6.558507      3.527892
  Cu     -6.248396      5.809241      5.595269
  S      -4.713740      5.909507      7.156417
  H      -6.171785      6.771327      8.896104
  H      -5.837540      8.046223      7.694468
  C      -5.398713      7.212744      8.254794
  H      -4.592279      7.597625      8.891477
  Cu     -4.155657      7.121966      5.385697
  Cu     -5.354500      9.674442      2.130950
  S      -7.305649      9.528098      3.033264
  C      -8.292914      8.713008      1.722624
  H      -9.345021      8.712671      2.036951
  H      -8.216231      9.267888      0.779693
  H      -7.972387      7.675221      1.570918
  S      -3.220365      9.678738      1.633184
  C      -3.142788      8.358119      0.358822
  H      -2.102015      8.025901      0.257556
  H      -3.768595      7.494297      0.610615
  H      -3.475481      8.767959     -0.603006
25
Coordinates from ORCA-job 4_Cu5C4H12S4 E -9944.905637760710
  Cu     -6.069493      7.734254      3.785508
  Cu     -3.643626      8.451224      3.448662
  S      -7.395023      5.847996      3.758281
  C      -8.980441      6.565365      4.329285
  H      -8.859952      7.616498      4.617820
  H      -9.383558      5.991679      5.172568
  H      -9.697907      6.509771      3.499974
  Cu     -6.208413      5.823105      5.572312
  S      -4.703171      5.932881      7.176717
  H      -6.186605      6.787708      8.897207
  H      -5.861788      8.057010      7.687030
  C      -5.415469      7.234586      8.257512
  H      -4.619136      7.637085      8.895856
  Cu     -4.165265      7.140626      5.377273
  Cu     -5.332305      9.662347      2.171939
  S      -7.301360      9.547585      3.071395
  C      -8.296115      8.756647      1.752649
  H      -9.347440      8.761840      2.069342
  H      -8.215771      9.321113      0.815809
  H      -7.985066      7.717809      1.589204
  S      -3.199370      9.656259      1.622043
  C      -3.154323      8.335480      0.347900
  H      -2.120257      7.985167      0.240094
  H      -3.792457      7.482145      0.604094
  H      -3.486535      8.750862     -0.611607
25
Coordinates from ORCA-job 4_Cu5C4H12S4 E -9944.906608353705
  Cu     -6.046990      7.734896      3.792034
  Cu     -3.635830      8.439690      3.454135
  S      -7.342228      5.820687      3.725174
  C      -8.943424      6.509547      4.285897
  H      -8.842529      7.561009      4.581175
  H      -9.345806      5.925291      5.122386
  H      -9.651641      6.447583      3.449016
  Cu     -6.165311      5.828120      5.551019
  S      -4.700910      5.959012      7.195235
  H      -6.225785      6.819529      8.876300
  H      -5.901125      8.072839      7.649573
  C      -5.451351      7.267079      8.240913
  H      -4.671853      7.693701      8.884526
  Cu     -4.156378      7.152636      5.376638
  Cu     -5.307062      9.659280      2.213051
  S      -7.275954      9.577125      3.127171
  C      -8.291005      8.813666      1.808245
  H      -9.338906      8.825579      2.136183
  H      -8.214232      9.388626      0.877382
  H      -7.992858      7.773574      1.628633
  S      -3.186194      9.630563      1.608001
  C      -3.191755      8.300898      0.343247
  H      -2.167807      7.925694      0.222359
  H      -3.844825      7.463702      0.614966
  H      -3.529087      8.716716     -0.614390
25
Coordinates from ORCA-job 4_Cu5C4H12S4 E -9944.907321250717
  Cu     -6.018034      7.735721      3.800427
  Cu     -3.617120      8.436059      3.460803
  S      -7.276288      5.788142      3.691314
  C      -8.896535      6.447683      4.232585
  H      -8.817129      7.498687      4.536515
  H      -9.302557      5.852201      5.059522
  H      -9.591081      6.380420      3.384636
  Cu     -6.127718      5.826095      5.534625
  S      -4.703856      5.984597      7.212865
  H      -6.274442      6.861460      8.843458
  H      -5.943233      8.090852      7.594812
  C      -5.493688      7.305098      8.212863
  H      -4.733674      7.758326      8.861813
  Cu     -4.137218      7.157358      5.380950
  Cu     -5.284223      9.663027      2.246968
  S      -7.240139      9.612575      3.190525
  C      -8.283191      8.877090      1.877411
  H      -9.325751      8.894834      2.221927
  H      -8.215188      9.462928      0.952508
  H      -7.998564      7.836462      1.678992
  S      -3.177913      9.605126      1.591917
  C      -3.240461      8.260280      0.344908
  H      -2.228701      7.857565      0.209506
  H      -3.908665      7.442667      0.639015
  H      -3.585476      8.671788     -0.611997
25
Coordinates from ORCA-job 4_Cu5C4H12S4 E -9944.907977471488
  Cu     -5.990055      7.736515      3.808533
  Cu     -3.597059      8.435499      3.464966
  S      -7.202946      5.753562      3.656140
  C      -8.844268      6.382324      4.172925
  H      -8.786788      7.430539      4.491478
  H      -9.257253      5.771983      4.985630
  H      -9.522037      6.315026      3.311425
  Cu     -6.098532      5.820107      5.521582
  S      -4.708806      6.011398      7.227479
  H      -6.323142      6.909907      8.803899
  H      -5.984473      8.110090      7.529547
  C      -5.536013      7.347318      8.176674
  H      -4.795879      7.828945      8.828357
  Cu     -4.118086      7.159043      5.388150
  Cu     -5.266891      9.670339      2.273500
  S      -7.198885      9.650423      3.258916
  C      -8.274414      8.944188      1.954763
  H      -9.310062      8.962634      2.319695
  H      -8.220675      9.544285      1.037943
  H      -8.000612      7.905419      1.732222
  S      -3.172866      9.578323      1.577332
  C      -3.293285      8.215348      0.353518
  H      -2.295345      7.783267      0.205620
  H      -3.977326      7.420301      0.672424
  H      -3.645147      8.620258     -0.603850
25
Coordinates from ORCA-job 4_Cu5C4H12S4 E -9944.908481928123
  Cu     -5.965607      7.737209      3.815614
  Cu     -3.577159      8.435132      3.465142
  S      -7.128104      5.723225      3.621505
  C      -8.790810      6.319787      4.113094
  H      -8.754412      7.361064      4.456452
  H      -9.213094      5.687699      4.904224
  H      -9.449859      6.262471      3.236453
  Cu     -6.078407      5.812332      5.511805
  S      -4.716743      6.037985      7.239280
  H      -6.369394      6.960473      8.762518
  H      -6.022441      8.129291      7.461825
  C      -5.576243      7.390266      8.137498
  H      -4.854467      7.899036      8.789224
  Cu     -4.101205      7.160462      5.398637
  Cu     -5.255547      9.679010      2.292399
  S      -7.155852      9.684122      3.327715
  C      -8.264570      9.008528      2.032938
  H      -9.291991      9.017754      2.420820
  H      -8.231350      9.629523      1.129054
  H      -7.995661      7.975956      1.778063
  S      -3.171853      9.551537      1.563526
  C      -3.345905      8.169756      0.365786
  H      -2.362005      7.709600      0.208458
  H      -4.044545      7.398110      0.709659
  H      -3.703619      8.566713     -0.592821
25
Coordinates from ORCA-job 4_Cu5C4H12S4 E -9944.908944306329
  Cu     -5.944109      7.737821      3.821840
  Cu     -3.557286      8.432480      3.462317
  S      -7.056601      5.702130      3.588022
  C      -8.739898      6.264284      4.055976
  H      -8.724758      7.294272      4.432930
  H      -9.171504      5.603579      4.818210
  H      -9.379220      6.226144      3.163855
  Cu     -6.062512      5.805739      5.503963
  S      -4.727952      6.064074      7.250942
  H      -6.413398      7.009496      8.724302
  H      -6.056164      8.148426      7.400069
  C      -5.614160      7.431422      8.101684
  H      -4.908431      7.963544      8.752270
  Cu     -4.086072      7.164117      5.411613
  Cu     -5.246675      9.686311      2.307417
  S      -7.114530      9.708435      3.393896
  C      -8.255053      9.065750      2.107566
  H      -9.273095      9.056630      2.519360
  H      -8.246639      9.714386      1.222684
  H      -7.986718      8.043845      1.812770
  S      -3.173705      9.525077      1.548080
  C      -3.394874      8.126125      0.376423
  H      -2.423897      7.641784      0.211841
  H      -4.105002      7.376299      0.744125
  H      -3.758590      8.514870     -0.583287
25
Coordinates from ORCA-job 4_Cu5C4H12S4 E -9944.909486873254
  Cu     -5.923980      7.738397      3.827669
  Cu     -3.535700      8.427791      3.458046
  S      -6.987323      5.690836      3.554535
  C      -8.690939      6.215166      3.998278
  H      -8.699895      7.231257      4.410904
  H      -9.129197      5.522850      4.727932
  H      -9.310068      6.198633      3.091465
  Cu     -6.048714      5.801166      5.497492
  S      -4.743500      6.089524      7.263201
  H      -6.457387      7.058268      8.688401
  H      -6.084786      8.169388      7.344593
  C      -5.650598      7.471406      8.069766
  H      -4.958638      8.021892      8.719682
  Cu     -4.070375      7.169880      5.426697
  Cu     -5.238732      9.691509      2.320184
  S      -7.074572      9.722848      3.459039
  C      -8.247157      9.116488      2.181735
  H      -9.254879      9.086631      2.617061
  H      -8.263423      9.795836      1.320348
  H      -7.980820      8.107733      1.843709
  S      -3.178937      9.499038      1.529798
  C      -3.440579      8.083797      0.384542
  H      -2.480614      7.580379      0.213452
  H      -4.157704      7.353023      0.776045
  H      -3.812330      8.463306     -0.575705
25
Coordinates from ORCA-job 4_Cu5C4H12S4 E -9944.910169658100
  Cu     -5.905587      7.738925      3.832995
  Cu     -3.510585      8.421268      3.453326
  S      -6.919798      5.692454      3.519253
  C      -8.644507      6.172102      3.935996
  H      -8.683322      7.172055      4.384074
  H      -9.084593      5.445525      4.630193
  H      -9.242577      6.176384      3.015172
  Cu     -6.038194      5.800520      5.492958
  S      -4.766074      6.113724      7.276280
  H      -6.501632      7.109623      8.655908
  H      -6.105018      8.195820      7.297945
  C      -5.684525      7.511531      8.043755
  H      -5.002353      8.072512      8.694699
  Cu     -4.052041      7.177658      5.444020
  Cu     -5.232318      9.692646      2.329617
  S      -7.036372      9.724252      3.524954
  C      -8.243524      9.160978      2.258516
  H      -9.239873      9.111233      2.717250
  H      -8.282077      9.873897      1.425592
  H      -7.984280      8.167306      1.874334
  S      -3.189730      9.473891      1.507045
  C      -3.481005      8.041545      0.389016
  H      -2.528198      7.527146      0.211991
  H      -4.198324      7.324855      0.805076
  H      -3.864336      8.409190     -0.571099
25
Coordinates from ORCA-job 4_Cu5C4H12S4 E -9944.910756411467
  Cu     -5.886694      7.739467      3.838465
  Cu     -3.484501      8.410749      3.449628
  S      -6.851456      5.698148      3.482671
  C      -8.596617      6.127924      3.869192
  H      -8.669388      7.109786      4.351437
  H      -9.035416      5.366631      4.525834
  H      -9.172294      6.152350      2.934567
  Cu     -6.023685      5.805775      5.487501
  S      -4.792333      6.140857      7.290722
  H      -6.549038      7.162762      8.623755
  H      -6.124658      8.225858      7.255167
  C      -5.720249      7.553253      8.020181
  H      -5.047430      8.122205      8.673737
  Cu     -4.032560      7.189494      5.460936
  Cu     -5.222723      9.688087      2.342052
  S      -6.997964      9.721609      3.592465
  C      -8.241138      9.206591      2.339880
  H      -9.224911      9.137701      2.822548
  H      -8.300496      9.953665      1.538851
  H      -7.993233      8.229716      1.908408
  S      -3.202753      9.445642      1.481215
  C      -3.521561      7.997641      0.390495
  H      -2.574829      7.474829      0.206390
  H      -4.236185      7.293175      0.831210
  H      -3.918734      8.353130     -0.568440
25
Coordinates from ORCA-job 4_Cu5C4H12S4 E -9944.911373171341
  Cu     -5.864704      7.740096      3.844835
  Cu     -3.458925      8.396759      3.446287
  S      -6.780656      5.696270      3.449382
  C      -8.543456      6.079423      3.803433
  H      -8.649201      7.042715      4.316113
  H      -8.981472      5.287473      4.423390
  H      -9.096435      6.123576      2.855844
  Cu     -6.002385      5.812051      5.480410
  S      -4.816640      6.171970      7.304660
  H      -6.601124      7.213126      8.585311
  H      -6.152051      8.252355      7.205934
  C      -5.761503      7.594854      7.991116
  H      -5.102334      8.176741      8.647234
  Cu     -4.013503      7.204769      5.477221
  Cu     -5.208217      9.682838      2.359514
  S      -6.956123      9.726705      3.658393
  C      -8.233976      9.256812      2.423114
  H      -9.204491      9.169222      2.929167
  H      -8.313886     10.033977      1.653037
  H      -7.998602      8.297207      1.948021
  S      -3.214187      9.413511      1.456915
  C      -3.569719      7.953485      0.393655
  H      -2.632453      7.417079      0.200292
  H      -4.284217      7.264525      0.858599
  H      -3.980584      8.299503     -0.563010
25
Coordinates from ORCA-job 4_Cu5C4H12S4 E -9944.912106126847
  Cu     -5.841918      7.740748      3.851437
  Cu     -3.432273      8.376173      3.447032
  S      -6.715541      5.690930      3.419833
  C      -8.493354      6.027715      3.734311
  H      -8.635471      6.975159      4.267847
  H      -8.930702      5.210442      4.321329
  H      -9.020021      6.084764      2.772239
  Cu     -5.972076      5.825975      5.472843
  S      -4.840324      6.208336      7.319308
  H      -6.652385      7.260355      8.552167
  H      -6.179736      8.282066      7.167568
  C      -5.802208      7.635983      7.968803
  H      -5.156806      8.228325      8.629597
  Cu     -3.991712      7.226750      5.490522
  Cu     -5.185970      9.670420      2.382306
  S      -6.917264      9.735014      3.718071
  C      -8.231367      9.310027      2.507509
  H      -9.186744      9.210725      3.040059
  H      -8.329646     10.112010      1.765239
  H      -8.016369      8.364650      1.995116
  S      -3.224442      9.376175      1.432425
  C      -3.613823      7.909928      0.391393
  H      -2.685119      7.362437      0.186887
  H      -4.326512      7.232810      0.876693
  H      -4.039064      8.249125     -0.561668
25
Coordinates from ORCA-job 4_Cu5C4H12S4 E -9944.912799918515
  Cu     -5.816495      7.741475      3.858802
  Cu     -3.405339      8.355712      3.444816
  S      -6.646107      5.679484      3.396509
  C      -8.436263      5.977807      3.673353
  H      -8.610005      6.908785      4.226394
  H      -8.873882      5.138808      4.228987
  H      -8.939234      6.049720      2.699516
  Cu     -5.942690      5.833042      5.465350
  S      -4.860746      6.244051      7.328226
  H      -6.707952      7.301715      8.503529
  H      -6.214469      8.302633      7.111280
  C      -5.848326      7.674037      7.931705
  H      -5.222544      8.283777      8.595760
  Cu     -3.971254      7.248574      5.506477
  Cu     -5.164818      9.664799      2.404442
  S      -6.871756      9.749741      3.774703
  C      -8.218403      9.361934      2.588767
  H      -9.159293      9.248857      3.144149
  H      -8.334822     10.185116      1.872544
  H      -8.020527      8.431631      2.042742
  S      -3.235037      9.339573      1.414514
  C      -3.670558      7.868935      0.398687
  H      -2.755748      7.303092      0.181209
  H      -4.384812      7.209587      0.906025
  H      -4.109765      8.204154     -0.549622
25
Coordinates from ORCA-job 4_Cu5C4H12S4 E -9944.913555602921
  Cu     -5.789717      7.742240      3.866563
  Cu     -3.377789      8.333360      3.445747
  S      -6.580448      5.656185      3.382571
  C      -8.380065      5.928026      3.614338
  H      -8.583317      6.849301      4.173671
  H      -8.823618      5.077290      4.147278
  H      -8.855978      6.005970      2.627329
  Cu     -5.907851      5.837468      5.456073
  S      -4.874007      6.283031      7.331324
  H      -6.760647      7.335569      8.448157
  H      -6.250782      8.319006      7.050022
  C      -5.893414      7.709214      7.888483
  H      -5.291522      8.339267      8.555843
  Cu     -3.948700      7.272367      5.520065
  Cu     -5.140160      9.662078      2.430959
  S      -6.825044      9.776248      3.821209
  C      -8.205154      9.413697      2.667913
  H      -9.129936      9.295820      3.248978
  H      -8.339324     10.247942      1.967520
  H      -8.029322      8.491628      2.100653
  S      -3.242522      9.299997      1.405398
  C      -3.729839      7.830775      0.411660
  H      -2.832347      7.243443      0.178937
  H      -4.447316      7.190392      0.938644
  H      -4.182025      8.166725     -0.530468
25
Coordinates from ORCA-job 4_Cu5C4H12S4 E -9944.914202513874
  Cu     -5.766206      7.742913      3.873374
  Cu     -3.352505      8.313867      3.440777
  S      -6.507680      5.646436      3.362150
  C      -8.317395      5.884128      3.552995
  H      -8.551742      6.788079      4.127905
  H      -8.759089      5.014132      4.055540
  H      -8.770180      5.976598      2.556447
  Cu     -5.883409      5.839240      5.448321
  S      -4.894025      6.319724      7.335796
  H      -6.816720      7.375925      8.386096
  H      -6.283577      8.335180      6.979543
  C      -5.940408      7.747239      7.839227
  H      -5.361151      8.397386      8.507235
  Cu     -3.931053      7.293096      5.537477
  Cu     -5.123591      9.661481      2.450591
  S      -6.775083      9.789498      3.877197
  C      -8.187369      9.459888      2.752569
  H      -9.096973      9.328574      3.354275
  H      -8.337228     10.312998      2.078563
  H      -8.030357      8.553719      2.155266
  S      -3.255096      9.262376      1.391479
  C      -3.793813      7.789584      0.428761
  H      -2.914015      7.181005      0.183707
  H      -4.511800      7.171447      0.980938
  H      -4.260379      8.122528     -0.507362
25
Coordinates from ORCA-job 4_Cu5C4H12S4 E -9944.914852631775
  Cu     -5.746953      7.743465      3.878951
  Cu     -3.328682      8.292766      3.435938
  S      -6.440317      5.634427      3.348054
  C      -8.258435      5.847267      3.488923
  H      -8.523212      6.738613      4.069693
  H      -8.701877      4.964095      3.966042
  H      -8.683718      5.948207      2.481307
  Cu     -5.860861      5.837544      5.439454
  S      -4.908253      6.359808      7.337407
  H      -6.865640      7.411520      8.326299
  H      -6.312688      8.351230      6.912953
  C      -5.982790      7.784625      7.791629
  H      -5.426481      8.454185      8.459666
  Cu     -3.914653      7.315356      5.553967
  Cu     -5.109400      9.664234      2.470103
  S      -6.726420      9.804816      3.924920
  C      -8.173806      9.498815      2.837660
  H      -9.065675      9.360318      3.463545
  H      -8.339422     10.364603      2.184010
  H      -8.039995      8.603723      2.218951
  S      -3.264130      9.221626      1.383123
  C      -3.853039      7.749297      0.446914
  H      -2.991565      7.120125      0.189873
  H      -4.571101      7.152878      1.021908
  H      -4.331733      8.083498     -0.482423
25
Coordinates from ORCA-job 4_Cu5C4H12S4 E -9944.915428836835
  Cu     -5.730122      7.743946      3.883827
  Cu     -3.307630      8.270115      3.429572
  S      -6.371933      5.633227      3.326966
  C      -8.197104      5.809199      3.421338
  H      -8.496234      6.680619      4.015385
  H      -8.634421      4.905899      3.865245
  H      -8.596506      5.925914      2.404869
  Cu     -5.840217      5.841890      5.433029
  S      -4.930999      6.401033      7.344529
  H      -6.917853      7.453393      8.271985
  H      -6.340532      8.372314      6.853379
  C      -6.026902      7.825014      7.749967
  H      -5.490179      8.510611      8.417717
  Cu     -3.901490      7.338991      5.570248
  Cu     -5.095190      9.660887      2.486626
  S      -6.680061      9.809288      3.979261
  C      -8.160179      9.539018      2.926966
  H      -9.034115      9.385993      3.574402
  H      -8.339435     10.424720      2.304350
  H      -8.049300      8.662217      2.278375
  S      -3.277353      9.179376      1.365576
  C      -3.910399      7.706014      0.459173
  H      -3.064759      7.059794      0.192156
  H      -4.625321      7.129458      1.057705
  H      -4.402611      8.038111     -0.463778
25
Coordinates from ORCA-job 4_Cu5C4H12S4 E -9944.915966156203
  Cu     -5.723403      7.744136      3.885777
  Cu     -3.291175      8.238622      3.421601
  S      -6.320747      5.631606      3.317945
  C      -8.149866      5.782564      3.357150
  H      -8.480907      6.639068      3.955813
  H      -8.586580      4.864999      3.771313
  H      -8.516946      5.911266      2.330062
  Cu     -5.823166      5.845815      5.430055
  S      -4.943077      6.447566      7.352579
  H      -6.954584      7.481627      8.245032
  H      -6.368219      8.395429      6.824177
  C      -6.062474      7.861131      7.730897
  H      -5.541846      8.558476      8.399179
  Cu     -3.893532      7.371178      5.585286
  Cu     -5.082190      9.657820      2.498316
  S      -6.641784      9.813453      4.014216
  C      -8.156026      9.567114      3.006056
  H      -9.007735      9.403655      3.679921
  H      -8.351418     10.466639      2.408687
  H      -8.070388      8.703601      2.336282
  S      -3.280794      9.132400      1.353034
  C      -3.948693      7.667796      0.456826
  H      -3.115727      7.009011      0.180937
  H      -4.663060      7.104479      1.067929
  H      -4.446508      8.007589     -0.460202
25
Coordinates from ORCA-job 4_Cu5C4H12S4 E -9944.916426531277
  Cu     -5.713500      7.744414      3.888651
  Cu     -3.278392      8.206380      3.413269
  S      -6.265698      5.630520      3.305908
  C      -8.097013      5.747558      3.302791
  H      -8.459349      6.581067      3.915864
  H      -8.526499      4.811047      3.680920
  H      -8.439396      5.897711      2.270045
  Cu     -5.802237      5.853887      5.429894
  S      -4.961373      6.490947      7.361025
  H      -6.999486      7.509319      8.209237
  H      -6.399967      8.414651      6.787710
  C      -6.103499      7.893807      7.705398
  H      -5.601676      8.604153      8.374559
  Cu     -3.888902      7.403904      5.598662
  Cu     -5.064195      9.650853      2.509766
  S      -6.601830      9.817239      4.053794
  C      -8.142323      9.604010      3.079712
  H      -8.975091      9.420345      3.771883
  H      -8.351866     10.522287      2.516372
  H      -8.076598      8.762033      2.380686
  S      -3.289438      9.088255      1.336786
  C      -3.995205      7.632636      0.456943
  H      -3.176946      6.959901      0.170457
  H      -4.708311      7.083065      1.082062
  H      -4.502054      7.977052     -0.453527
25
Coordinates from ORCA-job 4_Cu5C4H12S4 E -9944.916728750442
  Cu     -5.711149      7.744442      3.889357
  Cu     -3.272578      8.166428      3.402737
  S      -6.229934      5.626286      3.307755
  C      -8.061362      5.723280      3.269027
  H      -8.446338      6.537180      3.894702
  H      -8.488218      4.773064      3.614913
  H      -8.382038      5.895250      2.232772
  Cu     -5.783209      5.859945      5.436079
  S      -4.967299      6.532488      7.370058
  H      -7.029824      7.515678      8.198982
  H      -6.434033      8.427857      6.779653
  C      -6.136615      7.914348      7.701052
  H      -5.652531      8.634924      8.372472
  Cu     -3.891738      7.443823      5.610065
  Cu     -5.044498      9.645844      2.514870
  S      -6.570868      9.823298      4.071348
  C      -8.131545      9.629567      3.127002
  H      -8.946727      9.425204      3.834070
  H      -8.356811     10.561187      2.592124
  H      -8.079232      8.806182      2.404915
  S      -3.287408      9.046632      1.326681
  C      -4.024318      7.610415      0.443153
  H      -3.219260      6.926605      0.145398
  H      -4.740601      7.067996      1.070723
  H      -4.532710      7.969118     -0.461040
25
Coordinates from ORCA-job 4_Cu5C4H12S4 E -9944.917079339783
  Cu     -5.710927      7.744459      3.889412
  Cu     -3.274696      8.128161      3.391215
  S      -6.198548      5.621000      3.311888
  C      -8.030068      5.700124      3.252189
  H      -8.431610      6.491204      3.896571
  H      -8.451762      4.736198      3.565259
  H      -8.338904      5.898897      2.217225
  Cu     -5.764086      5.864287      5.445571
  S      -4.970742      6.568079      7.379255
  H      -7.057463      7.512934      8.191816
  H      -6.469203      8.433307      6.775032
  C      -6.168070      7.926518      7.699040
  H      -5.702902      8.657860      8.372281
  Cu     -3.901701      7.481813      5.618089
  Cu     -5.023084      9.642677      2.517116
  S      -6.542478      9.830321      4.084527
  C      -8.115377      9.654098      3.157583
  H      -8.918469      9.423615      3.870296
  H      -8.354544     10.599175      2.652984
  H      -8.068239      8.852908      2.410492
  S      -3.283522      9.011026      1.317588
  C      -4.051300      7.596536      0.428247
  H      -3.260669      6.900996      0.119022
  H      -4.772468      7.060614      1.055952
  H      -4.560012      7.970235     -0.469784
25
Coordinates from ORCA-job 4_Cu5C4H12S4 E -9944.917347882203
  Cu     -5.713671      7.744365      3.888629
  Cu     -3.282731      8.091219      3.379786
  S      -6.175499      5.614080      3.321700
  C      -8.007247      5.681694      3.253111
  H      -8.418550      6.451577      3.916655
  H      -8.423765      4.706750      3.537929
  H      -8.312103      5.906194      2.222348
  Cu     -5.744257      5.865923      5.458303
  S      -4.969652      6.597755      7.388172
  H      -7.080178      7.497937      8.190592
  H      -6.502988      8.432414      6.779084
  C      -6.196149      7.929303      7.703352
  H      -5.750664      8.669616      8.380114
  Cu     -3.916519      7.518045      5.622884
  Cu     -4.999457      9.642244      2.517002
  S      -6.518146      9.838564      4.088473
  C      -8.096595      9.673697      3.168747
  H      -8.892733      9.417808      3.880430
  H      -8.347063     10.629618      2.690620
  H      -8.048575      8.893448      2.399925
  S      -3.276264      8.981608      1.311106
  C      -4.072508      7.592388      0.409614
  H      -3.296122      6.886926      0.087009
  H      -4.798815      7.059807      1.034416
  H      -4.580594      7.984063     -0.481132
25
Coordinates from ORCA-job 4_Cu5C4H12S4 E -9944.917557186427
  Cu     -5.716182      7.744287      3.887900
  Cu     -3.291152      8.057341      3.369658
  S      -6.151876      5.607536      3.332886
  C      -7.984167      5.663911      3.260748
  H      -8.403706      6.412171      3.943449
  H      -8.393178      4.678401      3.518925
  H      -8.289229      5.913137      2.235834
  Cu     -5.722548      5.866038      5.471236
  S      -4.969898      6.624215      7.396407
  H      -7.105900      7.479922      8.181030
  H      -6.533437      8.429415      6.777675
  C      -6.225651      7.929245      7.703357
  H      -5.801950      8.677075      8.385803
  Cu     -3.930808      7.551269      5.626418
  Cu     -4.974228      9.643460      2.517683
  S      -6.492586      9.846505      4.091544
  C      -8.073978      9.692782      3.174351
  H      -8.865869      9.412289      3.881357
  H      -8.332898     10.659242      2.722584
  H      -8.023808      8.933979      2.384612
  S      -3.270671      8.955307      1.304417
  C      -4.097398      7.590901      0.393848
  H      -3.335960      6.876873      0.054906
  H      -4.825410      7.061183      1.019299
  H      -4.608358      8.000557     -0.487061
25
Coordinates from ORCA-job 4_Cu5C4H12S4 E -9944.917707713033
  Cu     -5.719268      7.744195      3.887007
  Cu     -3.297799      8.024595      3.361036
  S      -6.128570      5.601812      3.345381
  C      -7.961365      5.645251      3.269790
  H      -8.390010      6.370693      3.971132
  H      -8.360784      4.649071      3.500731
  H      -8.267052      5.918844      2.251339
  Cu     -5.700086      5.866003      5.483676
  S      -4.970785      6.650183      7.405210
  H      -7.132594      7.461398      8.167023
  H      -6.560925      8.426058      6.772852
  C      -6.255691      7.929030      7.701064
  H      -5.854454      8.683141      8.390156
  Cu     -3.942732      7.583466      5.629639
  Cu     -4.948630      9.644852      2.519177
  S      -6.466550      9.853629      4.093354
  C      -8.050888      9.712746      3.178609
  H      -8.838577      9.407997      3.880189
  H      -8.316822     10.689947      2.754815
  H      -7.999642      8.976525      2.367907
  S      -3.265343      8.929480      1.296902
  C      -4.123977      7.589513      0.379735
  H      -3.377610      6.868136      0.023260
  H      -4.851348      7.063026      1.008643
  H      -4.639345      8.017449     -0.489761
25
Coordinates from ORCA-job 4_Cu5C4H12S4 E -9944.917768190686
  Cu     -5.723113      7.744081      3.885892
  Cu     -3.303646      7.994410      3.354149
  S      -6.104688      5.596811      3.356693
  C      -7.937913      5.622183      3.277376
  H      -8.377384      6.322060      3.997747
  H      -8.324631      4.614704      3.479343
  H      -8.244902      5.920525      2.266309
  Cu     -5.677794      5.867120      5.494262
  S      -4.972153      6.675585      7.414334
  H      -7.158993      7.445644      8.148094
  H      -6.585236      8.421990      6.761709
  C      -6.284944      7.930062      7.694191
  H      -5.906162      8.690663      8.388873
  Cu     -3.952923      7.613178      5.631864
  Cu     -4.924107      9.645066      2.522170
  S      -6.440621      9.860039      4.096480
  C      -8.028259      9.737122      3.184369
  H      -8.811806      9.407712      3.879387
  H      -8.299546     10.725832      2.791670
  H      -7.977321      9.026146      2.351414
  S      -3.260283      8.904194      1.288851
  C      -4.152282      7.586851      0.369936
  H      -3.421535      6.857895     -0.003168
  H      -4.878032      7.065652      1.005020
  H      -4.672571      8.031515     -0.488098
25
Coordinates from ORCA-job 4_Cu5C4H12S4 E -9944.917805621366
  Cu     -5.726274      7.743994      3.884976
  Cu     -3.305488      7.978574      3.351720
  S      -6.093097      5.593614      3.364171
  C      -7.926450      5.604548      3.284440
  H      -8.372532      6.288622      4.015853
  H      -8.303505      4.590257      3.470117
  H      -8.235686      5.916279      2.278117
  Cu     -5.664403      5.868871      5.499394
  S      -4.971662      6.688399      7.419728
  H      -7.172933      7.435413      8.134991
  H      -6.596778      8.417569      6.752912
  C      -6.300376      7.929255      7.688466
  H      -5.934819      8.693506      8.386247
  Cu     -3.956606      7.628854      5.632686
  Cu     -4.909974      9.644105      2.525016
  S      -6.427021      9.863956      4.096302
  C      -8.015740      9.755441      3.184242
  H      -8.797949      9.412620      3.874251
  H      -8.287934     10.751213      2.810365
  H      -7.965306      9.060062      2.338184
  S      -3.256315      8.891507      1.284749
  C      -4.168415      7.586755      0.366527
  H      -3.446982      6.853502     -0.016204
  H      -4.892716      7.069332      1.006236
  H      -4.691883      8.040792     -0.484621
25
Coordinates from ORCA-job 4_Cu5C4H12S4 E -9944.917851054743
  Cu     -5.733774      7.743781      3.882804
  Cu     -3.308578      7.965400      3.349844
  S      -6.085031      5.591024      3.371640
  C      -7.918555      5.579713      3.295543
  H      -8.371695      6.245087      4.039784
  H      -8.281027      4.557248      3.464809
  H      -8.233941      5.904410      2.295276
  Cu     -5.651785      5.871252      5.503475
  S      -4.967879      6.698187      7.426366
  H      -7.182721      7.424106      8.123336
  H      -6.605568      8.408588      6.742619
  C      -6.312251      7.926379      7.682183
  H      -5.959245      8.695696      8.380879
  Cu     -3.960906      7.641801      5.632421
  Cu     -4.897019      9.642460      2.528356
  S      -6.416365      9.867074      4.094260
  C      -8.004449      9.780819      3.178684
  H      -8.787935      9.424820      3.860478
  H      -8.273533     10.785270      2.826342
  H      -7.954091      9.103936      2.317727
  S      -3.249071      8.882035      1.281315
  C      -4.181959      7.588913      0.365456
  H      -3.470364      6.849950     -0.024678
  H      -4.906124      7.077693      1.010111
  H      -4.706977      8.051399     -0.480166
25
Coordinates from ORCA-job 4_Cu5C4H12S4 E -9944.917900217088
  Cu     -5.737209      7.743696      3.881807
  Cu     -3.303086      7.960400      3.351766
  S      -6.082886      5.588266      3.377287
  C      -7.916051      5.559356      3.306223
  H      -8.373131      6.217778      4.054153
  H      -8.267925      4.532869      3.473329
  H      -8.236961      5.884253      2.307858
  Cu     -5.641934      5.874338      5.503431
  S      -4.965654      6.699438      7.427642
  H      -7.189613      7.414996      8.107623
  H      -6.606670      8.401978      6.731158
  C      -6.318303      7.921565      7.673123
  H      -5.974283      8.692442      8.374540
  Cu     -3.955523      7.647129      5.633660
  Cu     -4.888570      9.639921      2.533699
  S      -6.411697      9.870042      4.090577
  C      -7.997703      9.801449      3.170653
  H      -8.784829      9.444984      3.847884
  H      -8.259214     10.810440      2.825739
  H      -7.949051      9.131359      2.304367
  S      -3.246461      8.880905      1.281442
  C      -4.192191      7.593241      0.369828
  H      -3.486648      6.852276     -0.027373
  H      -4.913559      7.084058      1.019143
  H      -4.721695      8.059863     -0.470691
25
Coordinates from ORCA-job 4_Cu5C4H12S4 E -9944.917870374373
  Cu     -5.749285      7.743352      3.878313
  Cu     -3.307887      7.963019      3.350988
  S      -6.089026      5.588902      3.376432
  C      -7.922250      5.543422      3.313294
  H      -8.381124      6.197436      4.064004
  H      -8.263663      4.513736      3.482048
  H      -8.250981      5.865600      2.316639
  Cu     -5.642336      5.874393      5.501901
  S      -4.958483      6.695303      7.430243
  H      -7.181096      7.412168      8.115321
  H      -6.604654      8.393534      6.732614
  C      -6.311828      7.917636      7.675411
  H      -5.966485      8.692140      8.372208
  Cu     -3.959850      7.644228      5.631807
  Cu     -4.889719      9.639823      2.534786
  S      -6.417304      9.869066      4.088036
  C      -7.999991      9.817136      3.161119
  H      -8.792946      9.462999      3.832678
  H      -8.251961     10.829896      2.820352
  H      -7.951592      9.151396      2.291456
  S      -3.239248      8.885448      1.283023
  C      -4.185718      7.597549      0.371288
  H      -3.481337      6.852965     -0.021250
  H      -4.911533      7.092621      1.018846
  H      -4.710547      8.063272     -0.472692
25
Coordinates from ORCA-job 4_Cu5C4H12S4 E -9944.917916313316
  Cu     -5.752384      7.743260      3.877412
  Cu     -3.305222      7.966248      3.351875
  S      -6.091650      5.588570      3.373946
  C      -7.924721      5.539742      3.312884
  H      -8.383744      6.200476      4.057542
  H      -8.264773      4.511433      3.492153
  H      -8.254871      5.851674      2.313479
  Cu     -5.642805      5.874486      5.498994
  S      -4.958243      6.691383      7.427189
  H      -7.178117      7.413178      8.115735
  H      -6.602189      8.393955      6.733113
  C      -6.308105      7.916450      7.674759
  H      -5.960760      8.690286      8.371291
  Cu     -3.956968      7.641157      5.632538
  Cu     -4.891664      9.639666      2.537001
  S      -6.420865      9.869220      4.088728
  C      -8.002487      9.820675      3.160084
  H      -8.798649      9.476644      3.833049
  H      -8.247621     10.832293      2.811185
  H      -7.957091      9.148130      2.295555
  S      -3.240887      8.889323      1.285678
  C      -4.182993      7.598920      0.373810
  H      -3.477102      6.855106     -0.017450
  H      -4.909168      7.092334      1.019748
  H      -4.707767      8.062431     -0.471431
25
Coordinates from ORCA-job 4_Cu5C4H12S4 E -9944.917970618588
  Cu     -5.761496      7.743013      3.874775
  Cu     -3.304403      7.968321      3.351460
  S      -6.093996      5.587150      3.368475
  C      -7.926935      5.533178      3.310551
  H      -8.386730      6.205730      4.044032
  H      -8.264993      4.507578      3.507892
  H      -8.259084      5.827237      2.306413
  Cu     -5.642973      5.874011      5.494505
  S      -4.958518      6.688096      7.421821
  H      -7.173014      7.414640      8.121248
  H      -6.601567      8.396650      6.738715
  C      -6.303131      7.915574      7.677284
  H      -5.951901      8.688042      8.373411
  Cu     -3.956398      7.639137      5.633371
  Cu     -4.894228      9.640064      2.540680
  S      -6.425854      9.870456      4.092074
  C      -8.005956      9.827088      3.160767
  H      -8.807273      9.500728      3.836392
  H      -8.239611     10.836377      2.797695
  H      -7.966557      9.142526      2.305457
  S      -3.244162      8.892492      1.290015
  C      -4.177496      7.600078      0.374323
  H      -3.468615      6.857828     -0.014543
  H      -4.905505      7.089742      1.015392
  H      -4.700447      8.061305     -0.473337
25
Coordinates from ORCA-job 4_Cu5C4H12S4 E -9944.917983658788
  Cu     -5.766144      7.742857      3.873417
  Cu     -3.306230      7.964095      3.350133
  S      -6.091151      5.586037      3.367744
  C      -7.924085      5.527870      3.311017
  H      -8.385240      6.199816      4.044216
  H      -8.259742      4.501590      3.508986
  H      -8.257386      5.820661      2.306865
  Cu     -5.640232      5.874420      5.494348
  S      -4.959278      6.691257      7.421478
  H      -7.175002      7.412978      8.121455
  H      -6.604930      8.397613      6.740102
  C      -6.305903      7.915884      7.678170
  H      -5.955967      8.688137      8.375204
  Cu     -3.958874      7.643223      5.633452
  Cu     -4.891980      9.639800      2.542317
  S      -6.423891      9.871676      4.094200
  C      -8.003567      9.832529      3.161817
  H      -8.805932      9.507365      3.836811
  H      -8.234898     10.842639      2.799501
  H      -7.965497      9.148512      2.305998
  S      -3.244821      8.889300      1.289962
  C      -4.179348      7.599661      0.372093
  H      -3.471088      6.857580     -0.018251
  H      -4.907552      7.088639      1.012426
  H      -4.702109      8.062902     -0.474594
25
Coordinates from ORCA-job 4_Cu5C4H12S4 E -9944.917981395614
  Cu     -5.770123      7.742782      3.872284
  Cu     -3.308601      7.958179      3.348683
  S      -6.087401      5.584966      3.367958
  C      -7.920388      5.522508      3.312683
  H      -8.382813      6.191081      4.048177
  H      -8.253410      4.494749      3.507560
  H      -8.255028      5.817634      2.309623
  Cu     -5.636760      5.875221      5.494806
  S      -4.960074      6.695658      7.422054
  H      -7.178465      7.410197      8.120652
  H      -6.609094      8.398207      6.740977
  C      -6.310360      7.916248      7.679007
  H      -5.962693      8.688169      8.377541
  Cu     -3.961946      7.649000      5.633320
  Cu     -4.888757      9.639173      2.543741
  S      -6.420686      9.872994      4.096004
  C      -7.999861      9.838124      3.162307
  H      -8.802646      9.510596      3.835712
  H      -8.230698     10.849791      2.803959
  H      -7.961818      9.157415      2.303840
  S      -3.244948      8.884863      1.289095
  C      -4.182631      7.599043      0.369013
  H      -3.475496      6.857189     -0.023794
  H      -4.910558      7.087822      1.009483
  H      -4.705590      8.065431     -0.475817
25
Coordinates from ORCA-job 4_Cu5C4H12S4 E -9944.917977693220
  Cu     -5.770878      7.742691      3.872025
  Cu     -3.309267      7.956289      3.348374
  S      -6.086489      5.584706      3.367967
  C      -7.919550      5.521235      3.313701
  H      -8.381956      6.188356      4.050525
  H      -8.251895      4.492959      3.507065
  H      -8.254881      5.817780      2.311281
  Cu     -5.635871      5.875591      5.494824
  S      -4.960261      6.696759      7.422260
  H      -7.179530      7.409219      8.120245
  H      -6.610072      8.398289      6.741155
  C      -6.311697      7.916297      7.679265
  H      -5.964591      8.687897      8.378416
  Cu     -3.962789      7.650821      5.633190
  Cu     -4.887990      9.638873      2.544306
  S      -6.419890      9.873214      4.096482
  C      -7.998636      9.839415      3.161869
  H      -8.801591      9.510408      3.834363
  H      -8.229737     10.851629      2.805205
  H      -7.959938      9.160222      2.302230
  S      -3.244943      8.883782      1.288873
  C      -4.183639      7.598989      0.368079
  H      -3.476672      6.857447     -0.025589
  H      -4.911300      7.087732      1.008796
  H      -4.706784      8.066441     -0.476038
