14
Coordinates from ORCA-job 1_l-cys E -721.566425870276
  S      -2.000347     -0.393504     -0.599250
  O       1.983759      0.350917     -0.893929
  O       1.603321     -1.522761      0.251401
  N       0.093589      1.824417      0.217358
  C       0.282670      0.475584      0.821116
  C      -1.034422     -0.303961      0.951005
  C       1.321504     -0.351655      0.053558
  H       0.704130      0.629297      1.821687
  H      -0.846305     -1.329703      1.284982
  H      -1.673134      0.173913      1.701912
  H      -0.226337      1.680309     -0.744188
  H       1.026072      2.229657      0.093887
  H      -2.345780      0.903567     -0.619388
  H       2.596630     -0.306948     -1.286238
14
Coordinates from ORCA-job 1_l-cys E -721.569316925752
  S      -1.963668     -0.436814     -0.617279
  O       2.004150      0.306708     -0.915932
  O       1.538649     -1.552662      0.257889
  N       0.086401      1.847313      0.255004
  C       0.299999      0.491732      0.799589
  C      -1.015508     -0.277826      0.939257
  C       1.324303     -0.368782      0.043380
  H       0.719208      0.619473      1.811689
  H      -0.815409     -1.297884      1.287229
  H      -1.658504      0.210600      1.681909
  H      -0.233503      1.743514     -0.714472
  H       1.002573      2.295590      0.169434
  H      -2.422360      0.832455     -0.638200
  H       2.619018     -0.354287     -1.305584
14
Coordinates from ORCA-job 1_l-cys E -721.570176684013
  S      -1.949691     -0.492038     -0.602301
  O       1.999157      0.287703     -0.933332
  O       1.497370     -1.567423      0.262090
  N       0.082846      1.849791      0.289405
  C       0.308722      0.493384      0.779064
  C      -1.011881     -0.256226      0.951525
  C       1.294446     -0.391124      0.003645
  H       0.748584      0.584324      1.791333
  H      -0.809933     -1.268364      1.323512
  H      -1.648175      0.260452      1.680295
  H      -0.258569      1.791846     -0.677271
  H       0.983144      2.333365      0.229454
  H      -2.387591      0.785344     -0.721013
  H       2.636921     -0.351905     -1.322494
14
Coordinates from ORCA-job 1_l-cys E -721.570339699848
  S      -1.903863     -0.536706     -0.609625
  O       1.956643      0.279862     -0.957580
  O       1.467456     -1.571288      0.255882
  N       0.094904      1.854959      0.312102
  C       0.316998      0.500570      0.792280
  C      -1.007794     -0.247302      0.960008
  C       1.305178     -0.384717      0.022542
  H       0.752169      0.575618      1.808119
  H      -0.811866     -1.250921      1.357793
  H      -1.659241      0.288036      1.660329
  H      -0.234064      1.815815     -0.658361
  H       0.984899      2.359021      0.284108
  H      -2.348451      0.732224     -0.789216
  H       2.572382     -0.356043     -1.384469
14
Coordinates from ORCA-job 1_l-cys E -721.570540717510
  S      -1.912685     -0.525887     -0.614043
  O       1.961207      0.282045     -0.955442
  O       1.497243     -1.565494      0.263914
  N       0.101554      1.853930      0.303571
  C       0.315009      0.496665      0.791652
  C      -1.013164     -0.249665      0.956068
  C       1.303613     -0.386435      0.016400
  H       0.751182      0.571100      1.805758
  H      -0.824561     -1.254578      1.353061
  H      -1.662714      0.288248      1.656107
  H      -0.219968      1.813748     -0.668408
  H       0.993535      2.353129      0.278266
  H      -2.391226      0.733079     -0.760176
  H       2.586327     -0.350756     -1.372816
14
Coordinates from ORCA-job 1_l-cys E -721.570575847661
  S      -1.911724     -0.530534     -0.609135
  O       1.941622      0.279863     -0.967703
  O       1.511933     -1.560491      0.271497
  N       0.097454      1.851526      0.308420
  C       0.313066      0.494947      0.796811
  C      -1.014656     -0.251988      0.962161
  C       1.299691     -0.386307      0.014778
  H       0.753010      0.567045      1.808909
  H      -0.829554     -1.255329      1.364341
  H      -1.664582      0.291720      1.657338
  H      -0.223581      1.813121     -0.663536
  H       0.986765      2.354858      0.286579
  H      -2.341972      0.740711     -0.788761
  H       2.567878     -0.350014     -1.387786
14
Coordinates from ORCA-job 1_l-cys E -721.570596210540
  S      -1.901381     -0.536036     -0.615172
  O       1.924460      0.274847     -0.979776
  O       1.525347     -1.555151      0.283772
  N       0.101268      1.851502      0.313282
  C       0.314420      0.495615      0.800477
  C      -1.014412     -0.250878      0.960828
  C       1.300841     -0.385315      0.017067
  H       0.753266      0.563262      1.812957
  H      -0.834173     -1.252610      1.369023
  H      -1.667815      0.298753      1.648136
  H      -0.211093      1.817870     -0.661226
  H       0.987777      2.359837      0.304434
  H      -2.343164      0.730692     -0.796653
  H       2.550010     -0.353258     -1.403234
14
Coordinates from ORCA-job 1_l-cys E -721.570605468883
  S      -1.894369     -0.538269     -0.620401
  O       1.908731      0.268759     -0.991817
  O       1.538159     -1.549164      0.297992
  N       0.102229      1.852426      0.317660
  C       0.315277      0.496781      0.803465
  C      -1.013437     -0.251312      0.958752
  C       1.302721     -0.383724      0.020611
  H       0.752087      0.562551      1.816769
  H      -0.835136     -1.252422      1.369333
  H      -1.669756      0.299998      1.642095
  H      -0.203736      1.821483     -0.658859
  H       0.986864      2.364105      0.317684
  H      -2.337309      0.727904     -0.803173
  H       2.533027     -0.359986     -1.416198
14
Coordinates from ORCA-job 1_l-cys E -721.570611253365
  S      -1.889760     -0.538231     -0.625507
  O       1.893764      0.261982     -1.003776
  O       1.552752     -1.541914      0.314300
  N       0.102393      1.853816      0.321506
  C       0.315899      0.497865      0.805693
  C      -1.012549     -0.252359      0.955928
  C       1.304863     -0.382011      0.024342
  H       0.749844      0.562717      1.820150
  H      -0.834595     -1.253490      1.366637
  H      -1.671299      0.298137      1.637740
  H      -0.198403      1.824693     -0.656676
  H       0.986003      2.367307      0.327933
  H      -2.331130      0.728778     -0.807389
  H       2.517568     -0.368161     -1.426968
14
Coordinates from ORCA-job 1_l-cys E -721.570613840984
  S      -1.888266     -0.536777     -0.628602
  O       1.884495      0.257542     -1.011102
  O       1.563491     -1.536455      0.325828
  N       0.102423      1.854826      0.323585
  C       0.316169      0.498311      0.806771
  C      -1.012294     -0.253186      0.953849
  C       1.306438     -0.380875      0.026927
  H       0.747546      0.562846      1.822258
  H      -0.833613     -1.254770      1.363228
  H      -1.672215      0.295283      1.636197
  H      -0.196326      1.826278     -0.655291
  H       0.986146      2.368189      0.331900
  H      -2.327336      0.731353     -0.809033
  H       2.508694     -0.373437     -1.432602
14
Coordinates from ORCA-job 1_l-cys E -721.570614915990
  S      -1.888158     -0.535294     -0.630011
  O       1.880035      0.255512     -1.014322
  O       1.569574     -1.533438      0.331974
  N       0.102699      1.855292      0.324482
  C       0.316276      0.498331      0.807236
  C      -1.012439     -0.253475      0.952769
  C       1.307361     -0.380329      0.028403
  H       0.745821      0.562541      1.823477
  H      -0.832952     -1.255551      1.360721
  H      -1.672652      0.293253      1.636191
  H      -0.196358      1.826667     -0.654344
  H       0.987063      2.367638      0.331820
  H      -2.325856      0.733451     -0.809649
  H       2.504935     -0.375470     -1.434834
