14
Coordinates from ORCA-job 2_l-cys
  S   2.22579589279061      0.32537546016740      0.35281915777255
  O   -2.19961152209063      0.77345939168378      0.66248771504103
  O   -0.70421485342398      1.44921298819112     -0.89341385966804
  N   -1.24862655001323     -1.76868721298411     -0.33001550813982
  C   -0.39554136361068     -0.70333778927093      0.23504524788560
  C   0.98965799628103     -0.78645592532860     -0.39812844341561
  C   -1.07878163827453      0.62581666382531     -0.07715046574666
  H   -0.28878214499811     -0.76420002524676      1.33537562786410
  H   1.38948852652219     -1.79797402186427     -0.23868362363091
  H   0.93486880268909     -0.60536954313376     -1.47872083065418
  H   -2.16318413710776     -1.74533091265422      0.12941768800139
  H   -0.83535499109630     -2.67224721661491     -0.08184825839881
  H   1.71036602842502      1.47902449835676     -0.13257660204777
  H   -2.62989404609271      1.61583064487320      0.39670815513713
