14
Coordinates from ORCA-job 3_l-cys E -721.566007104588
  S      -2.032175     -0.430080     -0.558713
  O       2.203056      0.197935     -0.707751
  O       1.359628     -1.610391      0.286957
  N       0.149847      1.805928     -0.112236
  C       0.284044      0.570312      0.705501
  C      -1.072675     -0.102482      0.960758
  C       1.282499     -0.410329      0.078345
  H       0.726232      0.855661      1.668235
  H      -0.949417     -1.050584      1.494386
  H      -1.686733      0.549718      1.591777
  H       1.084948      2.047919     -0.454313
  H      -0.148951      2.574709      0.485344
  H      -1.774969      0.762709     -1.123545
  H       2.750074     -0.545716     -1.038100
14
Coordinates from ORCA-job 3_l-cys E -721.568178381436
  S      -1.972742     -0.463552     -0.571024
  O       2.168440      0.189074     -0.735770
  O       1.282678     -1.610970      0.283977
  N       0.143855      1.806342     -0.098531
  C       0.290544      0.579881      0.713846
  C      -1.060821     -0.085289      0.966048
  C       1.269663     -0.406851      0.088814
  H       0.733541      0.837101      1.695688
  H      -0.931029     -1.029732      1.507161
  H      -1.684130      0.574763      1.584272
  H       1.066723      2.072886     -0.446512
  H      -0.168120      2.567003      0.509394
  H      -1.696426      0.727584     -1.150633
  H       2.733233     -0.542931     -1.070085
14
Coordinates from ORCA-job 3_l-cys E -721.568589906583
  S      -1.960119     -0.473665     -0.568212
  O       2.155444      0.173865     -0.752996
  O       1.249551     -1.607107      0.320472
  N       0.128104      1.805181     -0.092403
  C       0.292330      0.577843      0.691728
  C      -1.060154     -0.063106      0.969041
  C       1.227573     -0.422103      0.038816
  H       0.757532      0.777563      1.687927
  H      -0.922815     -1.010466      1.505093
  H      -1.666209      0.609410      1.593993
  H       1.030040      2.105012     -0.461907
  H      -0.187179      2.547856      0.540424
  H      -1.655948      0.719088     -1.154491
  H       2.787260     -0.524062     -1.040839
14
Coordinates from ORCA-job 3_l-cys E -721.569277367001
  S      -1.947993     -0.480661     -0.578045
  O       2.128231      0.165969     -0.782714
  O       1.275304     -1.605946      0.339142
  N       0.141424      1.808566     -0.082391
  C       0.295447      0.580784      0.704530
  C      -1.065024     -0.063295      0.968234
  C       1.252717     -0.418158      0.070104
  H       0.745127      0.782327      1.703002
  H      -0.936418     -1.005819      1.513635
  H      -1.678866      0.612978      1.578708
  H       1.050882      2.118609     -0.429079
  H      -0.200493      2.548613      0.536234
  H      -1.628744      0.704090     -1.168310
  H       2.743813     -0.532747     -1.096407
14
Coordinates from ORCA-job 3_l-cys E -721.569421381255
  S      -1.941193     -0.477031     -0.589616
  O       2.103462      0.154590     -0.808457
  O       1.312168     -1.599575      0.379018
  N       0.149869      1.807695     -0.077723
  C       0.298526      0.580366      0.708239
  C      -1.066211     -0.064041      0.963402
  C       1.262167     -0.419529      0.080541
  H       0.741501      0.776888      1.709278
  H      -0.943337     -1.005634      1.511361
  H      -1.681693      0.615010      1.568085
  H       1.062188      2.128816     -0.406331
  H      -0.216132      2.543995      0.530707
  H      -1.628690      0.713691     -1.169184
  H       2.722783     -0.539932     -1.122674
14
Coordinates from ORCA-job 3_l-cys E -721.569593190259
  S      -1.919824     -0.478057     -0.607196
  O       2.029482      0.126186     -0.876101
  O       1.374438     -1.576428      0.453902
  N       0.163645      1.817112     -0.052576
  C       0.303057      0.585427      0.720438
  C      -1.068735     -0.058898      0.959038
  C       1.266429     -0.417676      0.091606
  H       0.738249      0.760247      1.727491
  H      -0.956337     -0.995225      1.517537
  H      -1.690369      0.628660      1.546657
  H       1.079122      2.164202     -0.343167
  H      -0.250650      2.539299      0.540720
  H      -1.545520      0.682736     -1.206622
  H       2.652422     -0.562274     -1.195080
14
Coordinates from ORCA-job 3_l-cys E -721.569686340817
  S      -1.876885     -0.487259     -0.638125
  O       1.972018      0.091072     -0.927681
  O       1.436338     -1.548206      0.528498
  N       0.180748      1.821477     -0.037598
  C       0.312433      0.590192      0.731108
  C      -1.062056     -0.058902      0.945516
  C       1.276579     -0.415292      0.106107
  H       0.733925      0.752197      1.746026
  H      -0.956273     -0.990909      1.512133
  H      -1.697811      0.631223      1.515335
  H       1.098385      2.192624     -0.288227
  H      -0.281302      2.530386      0.535987
  H      -1.558175      0.703635     -1.209238
  H       2.597485     -0.596931     -1.243195
14
Coordinates from ORCA-job 3_l-cys E -721.569745600649
  S      -1.862157     -0.494161     -0.644166
  O       1.946858      0.082729     -0.948571
  O       1.449238     -1.536489      0.545057
  N       0.185367      1.827441     -0.027934
  C       0.314798      0.593896      0.738542
  C      -1.059686     -0.057332      0.943021
  C       1.274969     -0.410848      0.108348
  H       0.732684      0.753674      1.755436
  H      -0.955685     -0.987126      1.513777
  H      -1.702861      0.632283      1.505747
  H       1.104583      2.203292     -0.265278
  H      -0.286882      2.531387      0.543757
  H      -1.531478      0.687978     -1.226138
  H       2.565661     -0.611417     -1.264952
14
Coordinates from ORCA-job 3_l-cys E -721.569779873330
  S      -1.844663     -0.504461     -0.650731
  O       1.925987      0.075103     -0.967473
  O       1.459163     -1.525078      0.559422
  N       0.189882      1.834065     -0.019998
  C       0.318264      0.597671      0.745724
  C      -1.055946     -0.055562      0.938852
  C       1.274409     -0.405797      0.110819
  H       0.730522      0.758099      1.764685
  H      -0.953267     -0.983695      1.513021
  H      -1.708132      0.631538      1.494857
  H       1.111142      2.213279     -0.244298
  H      -0.287923      2.532740      0.554147
  H      -1.520005      0.675704     -1.240647
  H       2.535974     -0.628298     -1.281735
14
Coordinates from ORCA-job 3_l-cys E -721.569782794122
  S      -1.843648     -0.505670     -0.651326
  O       1.923370      0.073495     -0.969975
  O       1.462417     -1.523402      0.562065
  N       0.190248      1.834999     -0.019501
  C       0.318876      0.597845      0.745766
  C      -1.055887     -0.054927      0.938001
  C       1.275216     -0.405531      0.111259
  H       0.729874      0.758112      1.765013
  H      -0.953856     -0.983218      1.512190
  H      -1.708329      0.631994      1.493744
  H       1.111820      2.215146     -0.241487
  H      -0.287215      2.532445      0.556551
  H      -1.520915      0.674362     -1.242570
  H       2.533438     -0.630340     -1.283086
14
Coordinates from ORCA-job 3_l-cys E -721.569784624085
  S      -1.843239     -0.506431     -0.652179
  O       1.920521      0.071549     -0.972325
  O       1.467720     -1.521357      0.565965
  N       0.190741      1.835555     -0.019641
  C       0.319569      0.597774      0.745470
  C      -1.055949     -0.054389      0.936805
  C       1.276718     -0.405407      0.112235
  H       0.728874      0.757961      1.765132
  H      -0.955065     -0.983119      1.510669
  H      -1.708042      0.632565      1.492708
  H       1.112827      2.216808     -0.238426
  H      -0.285967      2.531756      0.558747
  H      -1.524670      0.674163     -1.244227
  H       2.531371     -0.632119     -1.284287
14
Coordinates from ORCA-job 3_l-cys E -721.569784734984
  S      -1.843262     -0.506464     -0.652302
  O       1.920168      0.071340     -0.972476
  O       1.468463     -1.521125      0.566554
  N       0.190879      1.835517     -0.019745
  C       0.319605      0.597765      0.745452
  C      -1.055943     -0.054419      0.936656
  C       1.276941     -0.405380      0.112470
  H       0.728701      0.757900      1.765228
  H      -0.955304     -0.983178      1.510507
  H      -1.707859      0.632709      1.492585
  H       1.113097      2.216883     -0.237888
  H      -0.285809      2.531698      0.558740
  H      -1.525405      0.674176     -1.244470
  H       2.531136     -0.632113     -1.284664
