14
Coordinates from ORCA-job 4_l-cys E -721.565337578188
  S      -1.919410     -0.633654     -0.470623
  O       1.540752      0.083228     -1.251100
  O       2.022815     -1.109735      0.573073
  N       0.026070      1.887009      0.016016
  C       0.301609      0.629365      0.755615
  C      -0.941730     -0.233163      1.020425
  C       1.375234     -0.210730      0.058261
  H       0.731734      0.928486      1.718907
  H      -0.657742     -1.179853      1.492454
  H      -1.610042      0.290861      1.712479
  H      -0.898760      2.238107      0.251630
  H       0.017432      1.658261     -0.982549
  H      -2.214243      0.628927     -0.811111
  H       2.240484     -0.536178     -1.545541
14
Coordinates from ORCA-job 4_l-cys E -721.567953353498
  S      -1.896338     -0.722391     -0.462511
  O       1.570945      0.118686     -1.248291
  O       1.954545     -1.142904      0.576227
  N       0.068599      1.902464      0.022226
  C       0.304973      0.634040      0.738495
  C      -0.950188     -0.217925      1.017883
  C       1.351775     -0.224659      0.043449
  H       0.744648      0.895217      1.714897
  H      -0.667937     -1.148150      1.529647
  H      -1.625322      0.334412      1.684990
  H      -0.825836      2.302596      0.315437
  H      -0.009073      1.700870     -0.977266
  H      -2.260598      0.518910     -0.845090
  H       2.254010     -0.510234     -1.572157
14
Coordinates from ORCA-job 4_l-cys E -721.568993199721
  S      -1.842970     -0.788678     -0.458874
  O       1.579733      0.132854     -1.245009
  O       1.862615     -1.183624      0.575856
  N       0.081139      1.916725      0.032216
  C       0.310971      0.652254      0.729995
  C      -0.943573     -0.201834      1.018135
  C       1.348863     -0.214595      0.042815
  H       0.747447      0.880358      1.720368
  H      -0.656405     -1.117354      1.556692
  H      -1.629197      0.367182      1.661597
  H      -0.780322      2.342985      0.389694
  H      -0.075919      1.738124     -0.962046
  H      -2.207689      0.436594     -0.913801
  H       2.219512     -0.520061     -1.609700
14
Coordinates from ORCA-job 4_l-cys E -721.569386525438
  S      -1.847508     -0.819305     -0.430462
  O       1.627258      0.158935     -1.235738
  O       1.818744     -1.217043      0.556980
  N       0.079287      1.905574      0.019905
  C       0.307814      0.646966      0.712521
  C      -0.953642     -0.187589      1.029401
  C       1.319650     -0.245488      0.015570
  H       0.758172      0.857923      1.701101
  H      -0.671972     -1.089800      1.591637
  H      -1.629812      0.410258      1.655365
  H      -0.726431      2.373572      0.446303
  H      -0.176292      1.732666     -0.955693
  H      -2.163643      0.393599     -0.956329
  H       2.272579     -0.479337     -1.612623
14
Coordinates from ORCA-job 4_l-cys E -721.569696923386
  S      -1.834524     -0.830036     -0.436684
  O       1.648752      0.167584     -1.227549
  O       1.799703     -1.241708      0.537114
  N       0.081880      1.907609      0.015850
  C       0.310629      0.647975      0.711869
  C      -0.952662     -0.187131      1.026366
  C       1.327803     -0.245262      0.015419
  H       0.758521      0.865329      1.698553
  H      -0.674616     -1.081996      1.600407
  H      -1.635647      0.416023      1.639119
  H      -0.702299      2.394551      0.458755
  H      -0.200360      1.730764     -0.951955
  H      -2.200352      0.373623     -0.944558
  H       2.287375     -0.476393     -1.604772
14
Coordinates from ORCA-job 4_l-cys E -721.569920105606
  S      -1.818771     -0.847639     -0.437848
  O       1.689010      0.188507     -1.211050
  O       1.754861     -1.282854      0.501139
  N       0.083159      1.902938      0.002001
  C       0.312307      0.647809      0.706762
  C      -0.952140     -0.185005      1.026082
  C       1.328826     -0.250275      0.009046
  H       0.763223      0.878438      1.687981
  H      -0.679361     -1.067861      1.619839
  H      -1.642978      0.429721      1.617445
  H      -0.645181      2.431613      0.488568
  H      -0.273228      1.717169     -0.939393
  H      -2.225766      0.340421     -0.943188
  H       2.320243     -0.462051     -1.589448
14
Coordinates from ORCA-job 4_l-cys E -721.569981227075
  S      -1.813808     -0.848751     -0.444562
  O       1.722239      0.198722     -1.199025
  O       1.734472     -1.299841      0.489512
  N       0.084794      1.898499     -0.011043
  C       0.313035      0.646902      0.699688
  C      -0.950440     -0.185143      1.020990
  C       1.329716     -0.254519      0.005576
  H       0.764822      0.887056      1.678355
  H      -0.679061     -1.065985      1.618131
  H      -1.644106      0.431296      1.607075
  H      -0.612420      2.447821      0.497605
  H      -0.311375      1.708978     -0.935797
  H      -2.277370      0.331419     -0.917446
  H       2.353706     -0.455522     -1.571122
14
Coordinates from ORCA-job 4_l-cys E -721.570008463590
  S      -1.817421     -0.843360     -0.445834
  O       1.742382      0.203401     -1.192460
  O       1.721017     -1.307450      0.486063
  N       0.080936      1.894429     -0.022286
  C       0.311787      0.646472      0.693959
  C      -0.948240     -0.186810      1.019961
  C       1.328806     -0.256467      0.003770
  H       0.766280      0.895981      1.669602
  H      -0.674364     -1.069892      1.612808
  H      -1.641817      0.426098      1.609845
  H      -0.596521      2.454992      0.501248
  H      -0.343493      1.700319     -0.933515
  H      -2.289091      0.338482     -0.907752
  H       2.373943     -0.455264     -1.557474
14
Coordinates from ORCA-job 4_l-cys E -721.570014903124
  S      -1.821707     -0.838356     -0.447050
  O       1.750730      0.203556     -1.190290
  O       1.719373     -1.307404      0.488871
  N       0.079959      1.893706     -0.026625
  C       0.311238      0.646334      0.690815
  C      -0.947299     -0.187410      1.018533
  C       1.329483     -0.257013      0.003817
  H       0.766011      0.898128      1.665930
  H      -0.671118     -1.073619      1.605554
  H      -1.639614      0.421400      1.614099
  H      -0.596708      2.453793      0.498610
  H      -0.347778      1.699126     -0.936328
  H      -2.301852      0.345185     -0.897305
  H       2.383484     -0.456495     -1.550695
14
Coordinates from ORCA-job 4_l-cys E -721.570016380287
  S      -1.824707     -0.836220     -0.446026
  O       1.752480      0.203690     -1.189696
  O       1.718746     -1.307410      0.489470
  N       0.079251      1.893460     -0.027989
  C       0.310742      0.646263      0.689936
  C      -0.947206     -0.187441      1.019007
  C       1.329660     -0.257018      0.004014
  H       0.765898      0.898660      1.664763
  H      -0.669527     -1.075279      1.602870
  H      -1.638517      0.419174      1.617887
  H      -0.599279      2.452148      0.496434
  H      -0.347668      1.698527     -0.938058
  H      -2.301385      0.348989     -0.895905
  H       2.385715     -0.456612     -1.548770
14
Coordinates from ORCA-job 4_l-cys E -721.570016795482
  S      -1.826061     -0.835508     -0.445238
  O       1.753826      0.204342     -1.188898
  O       1.717665     -1.308339      0.488638
  N       0.079149      1.893289     -0.028654
  C       0.310496      0.646177      0.689569
  C      -0.947314     -0.187189      1.019438
  C       1.329664     -0.257227      0.003938
  H       0.765905      0.898724      1.664253
  H      -0.668926     -1.075708      1.601951
  H      -1.638085      0.418572      1.619732
  H      -0.600449      2.451447      0.494981
  H      -0.347057      1.698163     -0.939042
  H      -2.301973      0.349979     -0.895007
  H       2.387361     -0.455792     -1.547725
