14
Coordinates from ORCA-job 4_l-cys
  S   -1.82606070063838     -0.83550783738164     -0.44523794356002
  O   1.75382616091791      0.20434194688898     -1.18889830825185
  O   1.71766509027357     -1.30833899379540      0.48863841630367
  N   0.07914853123966      1.89328930247310     -0.02865435385214
  C   0.31049583326960      0.64617681104801      0.68956852573733
  C   -0.94731350969449     -0.18718920729484      1.01943827478253
  C   1.32966411929269     -0.25722719646759      0.00393819005853
  H   0.76590518463511      0.89872423461998      1.66425315753336
  H   -0.66892565475377     -1.07570807532104      1.60195122407032
  H   -1.63808463656934      0.41857242114370      1.61973159740157
  H   -0.60044907191128      2.45144737807105      0.49498091612486
  H   -0.34705696127025      1.69816317182500     -0.93904225450614
  H   -2.30197274042580      0.34997873217886     -0.89500660503448
  H   2.38736135563479     -0.45579168798819     -1.54772483680754
