11
Coordinates from ORCA-job 0_CuC2H6S2 E -2514.762098900717
  Cu     -5.511764      7.532655      4.959335
  S      -3.342271      7.612146      5.886088
  C      -3.913754      7.595213      7.620844
  H      -4.487713      6.691600      7.848740
  H      -4.560974      8.449698      7.841850
  H      -3.065932      7.633273      8.315981
  S      -7.852407      7.459536      3.847775
  C      -7.495339      8.595457      2.462696
  H      -8.376539      8.726352      1.822526
  H      -6.681806      8.222100      1.832890
  H      -7.195530      9.585953      2.818943
11
Coordinates from ORCA-job 0_CuC2H6S2 E -2514.770104447193
  Cu     -5.532770      7.490484      4.924305
  S      -3.398636      7.568662      5.854052
  C      -3.941291      7.608665      7.599162
  H      -4.514988      6.718918      7.866036
  H      -4.566534      8.478613      7.809719
  H      -3.074710      7.655193      8.265564
  S      -7.792677      7.418002      3.847501
  C      -7.464304      8.599261      2.495273
  H      -8.355944      8.721391      1.873182
  H      -6.653358      8.259247      1.847300
  H      -7.188818      9.585544      2.875574
11
Coordinates from ORCA-job 0_CuC2H6S2 E -2514.782073366798
  Cu     -5.571547      7.485973      4.891389
  S      -3.500100      7.570162      5.807738
  C      -3.975704      7.615285      7.573239
  H      -4.531425      6.723787      7.866852
  H      -4.588283      8.487241      7.806489
  H      -3.074672      7.665099      8.191112
  S      -7.708123      7.411004      3.888090
  C      -7.420856      8.596563      2.530227
  H      -8.332715      8.694127      1.934534
  H      -6.621754      8.266760      1.864281
  H      -7.158848      9.587981      2.903718
11
Coordinates from ORCA-job 0_CuC2H6S2 E -2514.790476291172
  Cu     -5.601895      7.477803      4.863408
  S      -3.598672      7.565696      5.763909
  C      -4.009122      7.622384      7.545408
  H      -4.551586      6.731788      7.864839
  H      -4.610200      8.497602      7.795301
  H      -3.080173      7.675286      8.119842
  S      -7.616191      7.402882      3.929909
  C      -7.380639      8.594213      2.565280
  H      -8.311520      8.668177      1.996179
  H      -6.592831      8.277583      1.880400
  H      -7.131199      9.590569      2.933194
11
Coordinates from ORCA-job 0_CuC2H6S2 E -2514.792419602383
  Cu     -5.607553      7.395994      4.819418
  S      -3.676986      7.475038      5.724931
  C      -4.048347      7.646290      7.507429
  H      -4.608925      6.791394      7.887354
  H      -4.618335      8.552507      7.716854
  H      -3.103744      7.703554      8.054681
  S      -7.502259      7.332976      3.923846
  C      -7.343152      8.602543      2.616671
  H      -8.289573      8.663603      2.072361
  H      -6.558239      8.352314      1.902077
  H      -7.126915      9.587769      3.032047
11
Coordinates from ORCA-job 0_CuC2H6S2 E -2514.793261332475
  Cu     -5.562846      7.219121      4.770435
  S      -3.649080      7.267079      5.741611
  C      -4.070862      7.690766      7.469942
  H      -4.707912      6.932996      7.927659
  H      -4.579465      8.653462      7.538198
  H      -3.146679      7.752434      8.050590
  S      -7.457612      7.183809      3.794121
  C      -7.336003      8.624513      2.673276
  H      -8.271713      8.715769      2.114904
  H      -6.524002      8.510443      1.954115
  H      -7.177854      9.553590      3.222817
11
Coordinates from ORCA-job 0_CuC2H6S2 E -2514.793570665320
  Cu     -5.528522      7.055708      4.719884
  S      -3.663718      7.065513      5.769406
  C      -4.104633      7.737184      7.412185
  H      -4.821857      7.098879      7.929768
  H      -4.528992      8.739517      7.338904
  H      -3.199512      7.794831      8.022641
  S      -7.376150      7.056740      3.664701
  C      -7.314933      8.639878      2.749737
  H      -8.237771      8.750495      2.173763
  H      -6.476198      8.671430      2.053158
  H      -7.231742      9.493806      3.423521
11
Coordinates from ORCA-job 0_CuC2H6S2 E -2514.793617645068
  Cu     -5.511431      6.998378      4.705346
  S      -3.672161      6.988503      5.790419
  C      -4.112613      7.753175      7.391894
  H      -4.870293      7.172974      7.920790
  H      -4.488648      8.769480      7.264846
  H      -3.218829      7.797591      8.020280
  S      -7.340500      7.018338      3.611133
  C      -7.312664      8.645305      2.775390
  H      -8.225269      8.755265      2.183019
  H      -6.458847      8.738006      2.102534
  H      -7.272774      9.466965      3.492018
11
Coordinates from ORCA-job 0_CuC2H6S2 E -2514.793622772893
  Cu     -5.510902      7.006825      4.709209
  S      -3.670386      6.997448      5.789611
  C      -4.108822      7.749967      7.397166
  H      -4.865928      7.165922      7.922663
  H      -4.485416      8.767119      7.278084
  H      -3.214513      7.790269      8.025006
  S      -7.343614      7.025897      3.618273
  C      -7.316374      8.645183      2.768660
  H      -8.228869      8.749745      2.175306
  H      -6.462302      8.732575      2.095387
  H      -7.276905      9.473032      3.478305
11
Coordinates from ORCA-job 0_CuC2H6S2 E -2514.793622635844
  Cu     -5.510792      7.013545      4.712083
  S      -3.669879      7.003963      5.789040
  C      -4.106193      7.747449      7.401166
  H      -4.862123      7.160380      7.924866
  H      -4.483596      8.765034      7.288157
  H      -3.211026      7.785153      8.027837
  S      -7.345220      7.031836      3.623553
  C      -7.318852      8.645069      2.763599
  H      -8.231690      8.745217      2.170188
  H      -6.465171      8.728665      2.089409
  H      -7.279488      9.477669      3.467770
11
Coordinates from ORCA-job 0_CuC2H6S2 E -2514.793623253869
  Cu     -5.510918      7.014672      4.712513
  S      -3.670037      7.004554      5.789185
  C      -4.105822      7.747040      7.401884
  H      -4.861230      7.159503      7.925798
  H      -4.483529      8.764587      7.289650
  H      -3.210300      7.784696      8.028050
  S      -7.345246      7.032635      3.623926
  C      -7.319158      8.645070      2.762765
  H      -8.232263      8.744537      2.169648
  H      -6.465816      8.728349      2.088107
  H      -7.279710      9.478336      3.466143
