12
Coordinates from ORCA-job 1_Cu2C2H6S2 E -4154.291893870828
  Cu     -5.511764      7.532655      4.959335
  S      -0.715908      7.772348      7.181896
  C      -1.287391      7.755415      8.916652
  H      -1.861350      6.851802      9.144548
  H      -1.934611      8.609900      9.137658
  H      -0.439569      7.793475      9.611789
  S      -7.852407      7.459536      3.847775
  C      -7.495339      8.595457      2.462696
  H      -8.376539      8.726352      1.822526
  H      -6.681806      8.222100      1.832890
  H      -7.195530      9.585953      2.818943
  Cu     -3.047526      7.662138      6.054629
12
Coordinates from ORCA-job 1_Cu2C2H6S2 E -4154.295123966440
  Cu     -5.500397      7.512746      4.961342
  S      -0.755256      7.756519      7.146456
  C      -1.327702      7.765516      8.879681
  H      -1.906113      6.867955      9.118823
  H      -1.969570      8.626671      9.088854
  H      -0.478937      7.808032      9.573343
  S      -7.806483      7.440995      3.872460
  C      -7.457116      8.596251      2.503090
  H      -8.340609      8.729481      1.866642
  H      -6.642716      8.235225      1.867649
  H      -7.163195      9.583494      2.872274
  Cu     -3.051645      7.644246      6.040722
12
Coordinates from ORCA-job 1_Cu2C2H6S2 E -4154.302898242450
  Cu     -5.477718      7.504384      4.988218
  S      -0.861355      7.763575      7.054204
  C      -1.422651      7.776859      8.790164
  H      -1.995948      6.878018      9.035503
  H      -2.065081      8.637122      8.999912
  H      -0.567501      7.824516      9.475796
  S      -7.699830      7.430975      3.963711
  C      -7.362597      8.587333      2.593342
  H      -8.252916      8.717956      1.965716
  H      -6.553225      8.227070      1.951538
  H      -7.067907      9.574375      2.961663
  Cu     -3.073011      7.644948      6.011569
12
Coordinates from ORCA-job 1_Cu2C2H6S2 E -4154.308951078060
  Cu     -5.450853      7.496091      5.016794
  S      -0.970239      7.769867      6.963397
  C      -1.513000      7.787430      8.705961
  H      -2.080532      6.887448      8.959633
  H      -2.155955      8.646353      8.918689
  H      -0.649511      7.840410      9.380814
  S      -7.590463      7.422111      4.053629
  C      -7.272685      8.579220      2.678290
  H      -8.171419      8.705177      2.061639
  H      -6.469204      8.220787      2.028398
  H      -6.977390      9.567056      3.043488
  Cu     -3.098488      7.645180      5.980606
12
Coordinates from ORCA-job 1_Cu2C2H6S2 E -4154.311998730413
  Cu     -5.418672      7.484974      5.044157
  S      -1.082219      7.770502      6.877276
  C      -1.596395      7.797910      8.630148
  H      -2.158524      6.898540      8.897234
  H      -2.237678      8.656970      8.846797
  H      -0.721377      7.856506      9.289639
  S      -7.476786      7.412537      4.136852
  C      -7.190134      8.573334      2.755521
  H      -8.099893      8.691241      2.153475
  H      -6.393332      8.220988      2.094346
  H      -6.896882      9.562889      3.117387
  Cu     -3.127847      7.640739      5.948505
12
Coordinates from ORCA-job 1_Cu2C2H6S2 E -4154.312282460634
  Cu     -5.386145      7.401494      5.013799
  S      -1.107458      7.680087      6.863392
  C      -1.624279      7.826982      8.610701
  H      -2.214433      6.962395      8.927700
  H      -2.239991      8.716268      8.772944
  H      -0.749346      7.898120      9.269039
  S      -7.421138      7.344029      4.101008
  C      -7.171817      8.594045      2.790634
  H      -8.085899      8.721004      2.197072
  H      -6.366014      8.305232      2.109787
  H      -6.906488      9.568063      3.211515
  Cu     -3.126731      7.549411      5.923745
12
Coordinates from ORCA-job 1_Cu2C2H6S2 E -4154.312524404894
  Cu     -5.337935      7.259711      4.945095
  S      -1.117908      7.514809      6.882209
  C      -1.649022      7.876549      8.594398
  H      -2.295496      7.086741      8.987752
  H      -2.211940      8.812789      8.649299
  H      -0.780924      7.965236      9.259395
  S      -7.357537      7.231367      3.995195
  C      -7.163711      8.631014      2.834179
  H      -8.078572      8.777247      2.246534
  H      -6.338764      8.460476      2.136440
  H      -6.951534      9.563976      3.364267
  Cu     -3.116397      7.387216      5.896573
12
Coordinates from ORCA-job 1_Cu2C2H6S2 E -4154.312729783293
  Cu     -5.279475      7.109452      4.857281
  S      -1.133247      7.320250      6.939050
  C      -1.669172      7.932209      8.576667
  H      -2.387635      7.250979      9.041859
  H      -2.153521      8.910004      8.499151
  H      -0.811719      8.032884      9.253203
  S      -7.283581      7.119039      3.842166
  C      -7.161794      8.670281      2.881790
  H      -8.072655      8.835203      2.293405
  H      -6.313818      8.646762      2.191090
  H      -7.022358      9.535661      3.536271
  Cu     -3.110767      7.204406      5.879405
12
Coordinates from ORCA-job 1_Cu2C2H6S2 E -4154.312742059634
  Cu     -5.264194      7.074995      4.832693
  S      -1.137320      7.268708      6.960576
  C      -1.673314      7.946063      8.571202
  H      -2.411125      7.296984      9.051894
  H      -2.134115      8.931714      8.457502
  H      -0.819713      8.049400      9.252153
  S      -7.264714      7.092915      3.796283
  C      -7.162010      8.679199      2.894408
  H      -8.070728      8.849646      2.304334
  H      -6.308294      8.695434      2.210554
  H      -7.043419      9.522774      3.580756
  Cu     -3.110794      7.159301      5.878981
12
Coordinates from ORCA-job 1_Cu2C2H6S2 E -4154.312756572083
  Cu     -5.261474      7.071360      4.828044
  S      -1.137170      7.259059      6.965066
  C      -1.673912      7.948053      8.569836
  H      -2.414515      7.304491      9.053684
  H      -2.131108      8.934636      8.449663
  H      -0.821162      8.052858      9.251728
  S      -7.262121      7.088016      3.787237
  C      -7.161965      8.680184      2.896691
  H      -8.070381      8.852416      2.306555
  H      -6.307672      8.703401      2.213730
  H      -7.046601      9.519727      3.588541
  Cu     -3.111658      7.152931      5.880561
12
Coordinates from ORCA-job 1_Cu2C2H6S2 E -4154.312754748153
  Cu     -5.260130      7.074455      4.826262
  S      -1.136511      7.254709      6.966471
  C      -1.674407      7.947962      8.568322
  H      -2.414652      7.305690      9.054503
  H      -2.131875      8.934172      8.445908
  H      -0.822036      8.055283      9.250495
  S      -7.261504      7.085343      3.783634
  C      -7.161283      8.679502      2.897921
  H      -8.069952      8.853693      2.308521
  H      -6.307673      8.705023      2.214134
  H      -7.045833      9.517683      3.591446
  Cu     -3.113884      7.153616      5.883720
12
Coordinates from ORCA-job 1_Cu2C2H6S2 E -4154.312762213101
  Cu     -5.260975      7.080942      4.828421
  S      -1.136106      7.258488      6.964106
  C      -1.673960      7.946085      8.568460
  H      -2.411394      7.300367      9.054386
  H      -2.134860      8.931107      8.449355
  H      -0.821091      8.054646      9.249902
  S      -7.262958      7.086853      3.787647
  C      -7.161061      8.678040      2.896703
  H      -8.070329      8.852462      2.308194
  H      -6.308660      8.699937      2.211258
  H      -7.042739      9.518338      3.587187
  Cu     -3.115606      7.159867      5.885719
12
Coordinates from ORCA-job 1_Cu2C2H6S2 E -4154.312763659023
  Cu     -5.262001      7.086239      4.830675
  S      -1.136004      7.262739      6.961961
  C      -1.672933      7.944352      8.569505
  H      -2.407933      7.295316      9.054703
  H      -2.136772      8.928399      8.453843
  H      -0.819358      8.053316      9.249994
  S      -7.264290      7.088921      3.791750
  C      -7.161530      8.676985      2.894758
  H      -8.071350      8.850855      2.306943
  H      -6.310048      8.695191      2.208061
  H      -7.040767      9.519453      3.582160
  Cu     -3.116753      7.165364      5.886985
12
Coordinates from ORCA-job 1_Cu2C2H6S2 E -4154.312762796498
  Cu     -5.262796      7.089762      4.832125
  S      -1.135925      7.265663      6.960980
  C      -1.671591      7.943124      8.570964
  H      -2.405038      7.291917      9.055591
  H      -2.137156      8.926624      8.457726
  H      -0.817322      8.051971      9.250561
  S      -7.265267      7.090610      3.794145
  C      -7.162509      8.676428      2.892717
  H      -8.072741      8.849418      2.305327
  H      -6.311565      8.692188      2.205303
  H      -7.040404      9.520414      3.577999
  Cu     -3.117426      7.169011      5.887899
