13
Coordinates from ORCA-job 2_Cu3C2H6S2
  Cu  -6.45144087473326      6.58613363709857      4.91294948433797
  Cu  -4.26589405302760      7.13859151068151      4.36217018215241
  S   -8.54238407078189      6.15541100778045      5.32574641139896
  C   -9.33619330032588      7.80494073066568      5.26005720628034
  H   -10.28077925753927      7.77020562187550      5.80295988352951
  H   -9.53300038478067      8.06061057781883      4.21852497494602
  H   -8.70257269781324      8.57163500262583      5.70002939522927
  Cu  -7.70393780237204      6.03588072963325      7.29522123754232
  S   -6.90440193589514      5.90838400405807      9.25557491199693
  H   -5.23558618157285      7.62693150184087      8.74022662782080
  H   -4.66119910388664      6.02519785894135      8.27382171060437
  C   -5.21474566278138      6.57703443306256      9.03271440888603
  H   -4.68281867449007      6.49324838391742      9.98345556527495
