19
Coordinates from ORCA-job 3_Cu4C3H9S3
  Cu  -4.64157802798666      6.63888941949211      3.21875952612663
  S   -2.14719252232568      7.64536755843816      6.64858610501850
  C   -3.59214118705260      8.35533117574744      7.51908101135600
  H   -3.79464051537463      7.75158001121279      8.40456250103143
  H   -4.47615391039170      8.34569399723961      6.87911006192700
  H   -3.38041288256607      9.37883050701797      7.82862728109874
  S   -5.66181789393122      8.03562530268064      1.77656714175804
  C   -6.89192539309153      8.71461088525905      2.94928664757365
  H   -7.03650044900362      9.77995818370641      2.76934933012859
  H   -6.57198079974897      8.56164975855566      3.98155934629550
  H   -7.83985132315706      8.19722023890101      2.79642844252951
  Cu  -3.29266538875289      6.49929805070149      5.08533775959984
  Cu  -3.76558105657744      8.87512280725610      2.47053167822831
  Cu  -2.12176633726808      8.70277151904000      4.73710985419240
  S   -1.77078767471625      9.64692602581103      2.81962213386828
  C   -0.83086762807763      8.27906422485708      2.03319362480532
  H   -0.84209820933121      8.41781057265185      0.95202589222832
  H   0.19934959644564      8.30698300599606      2.38838624196860
  H   -1.27394439709227      7.31317175543525      2.27966342026520
