25
Coordinates from ORCA-job 4_Cu5C4H12S4 E -9948.550999067955
  Cu     -6.044470      7.734952      3.792725
  Cu     -3.363717      8.531787      3.399517
  S      -7.758723      5.754024      3.916222
  C      -9.307371      6.637672      4.319634
  H      -9.118373      7.689279      4.536570
  H      -9.810277      6.176260      5.169767
  H      -9.972527      6.581260      3.456140
  Cu     -6.458555      5.629469      5.932972
  S      -4.688084      5.703646      7.601120
  H      -6.036831      6.728963      9.347102
  H      -5.561901      7.935676      8.140365
  C      -5.224392      7.064297      8.701509
  H      -4.384417      7.364836      9.329265
  Cu     -3.951106      7.074220      5.569646
  Cu     -5.360806      9.848049      1.730503
  S      -7.528742      9.624701      2.742135
  C      -8.573289      8.667143      1.587193
  H      -9.598791      8.675385      1.960712
  H      -8.567567      9.114374      0.592963
  H      -8.242682      7.630341      1.520863
  S      -2.971911      9.892400      1.267914
  C      -2.764839      8.522282      0.072191
  H      -1.704975      8.275894     -0.004889
  H      -3.303630      7.625946      0.379405
  H      -3.122869      8.824185     -0.912677
25
Coordinates from ORCA-job 4_Cu5C4H12S4 E -9948.565711994037
  Cu     -6.044047      7.734966      3.792847
  Cu     -3.382511      8.531364      3.405462
  S      -7.733801      5.778837      3.923573
  C      -9.276025      6.661369      4.343774
  H      -9.082234      7.710695      4.565303
  H      -9.772498      6.195027      5.194505
  H      -9.944990      6.609476      3.483161
  Cu     -6.454900      5.640295      5.910669
  S      -4.703931      5.710946      7.546165
  H      -6.056870      6.726215      9.290460
  H      -5.581330      7.936325      8.086258
  C      -5.244318      7.065907      8.647680
  H      -4.404565      7.364390      9.276447
  Cu     -3.963810      7.073755      5.554575
  Cu     -5.369072      9.837095      1.751470
  S      -7.502487      9.601349      2.749615
  C      -8.532700      8.645495      1.583899
  H      -9.559639      8.649068      1.953016
  H      -8.521491      9.097996      0.592526
  H      -8.195714      7.611294      1.516214
  S      -3.014262      9.883443      1.305998
  C      -2.810332      8.518804      0.107062
  H      -1.750223      8.274471      0.028977
  H      -3.348903      7.623451      0.414766
  H      -3.170190      8.825007     -0.875557
25
Coordinates from ORCA-job 4_Cu5C4H12S4 E -9948.584271142427
  Cu     -6.034523      7.735236      3.795606
  Cu     -3.404348      8.529637      3.415928
  S      -7.687078      5.799251      3.930694
  C      -9.229721      6.677575      4.356246
  H      -9.035902      7.725983      4.581137
  H      -9.723586      6.206783      5.205755
  H      -9.898125      6.626617      3.495163
  Cu     -6.445578      5.653466      5.880749
  S      -4.727970      5.723862      7.474764
  H      -6.087994      6.734037      9.214789
  H      -5.606621      7.946388      8.013581
  C      -5.272911      7.075973      8.576631
  H      -4.434766      7.371543      9.208799
  Cu     -3.976732      7.074506      5.534042
  Cu     -5.376508      9.823980      1.781940
  S      -7.458197      9.583529      2.768873
  C      -8.486124      8.631938      1.598345
  H      -9.512791      8.634597      1.968172
  H      -8.473600      9.089001      0.609330
  H      -8.147364      7.598705      1.527818
  S      -3.072019      9.868196      1.353689
  C      -2.871891      8.506165      0.151983
  H      -1.811475      8.264708      0.070121
  H      -3.408547      7.610965      0.462832
  H      -3.236473      8.814401     -0.828117
25
Coordinates from ORCA-job 4_Cu5C4H12S4 E -9948.600784689481
  Cu     -6.022185      7.735585      3.799180
  Cu     -3.426830      8.526439      3.427538
  S      -7.639447      5.816474      3.939170
  C      -9.185736      6.688343      4.368140
  H      -8.994318      7.736373      4.596278
  H      -9.676857      6.212668      5.216368
  H      -9.853914      6.637348      3.506932
  Cu     -6.434504      5.665945      5.850929
  S      -4.751599      5.737623      7.404081
  H      -6.117696      6.743321      9.142070
  H      -5.630985      7.958549      7.944651
  C      -5.300272      7.087323      8.508170
  H      -4.463791      7.380025      9.143778
  Cu     -3.989663      7.076707      5.512175
  Cu     -5.382449      9.811647      1.813252
  S      -7.412585      9.568963      2.787421
  C      -8.442099      8.623679      1.611956
  H      -9.468645      8.626384      1.982008
  H      -8.428201      9.085744      0.625417
  H      -8.103649      7.590747      1.537395
  S      -3.129001      9.852138      1.401005
  C      -2.930960      8.492349      0.195394
  H      -1.870261      8.253720      0.109692
  H      -3.465296      7.596490      0.508255
  H      -3.299902      8.802458     -0.782391
25
Coordinates from ORCA-job 4_Cu5C4H12S4 E -9948.614526786621
  Cu     -6.009658      7.735940      3.802810
  Cu     -3.451618      8.521592      3.439842
  S      -7.593022      5.833518      3.947058
  C      -9.145506      6.695816      4.378426
  H      -8.958648      7.743726      4.610462
  H      -9.633411      6.214022      5.224937
  H      -9.813431      6.644206      3.517064
  Cu     -6.422131      5.679269      5.820574
  S      -4.772525      5.753354      7.333922
  H      -6.142724      6.752856      9.073032
  H      -5.653197      7.972267      7.879872
  C      -5.324067      7.099809      8.442448
  H      -4.488675      7.389896      9.080613
  Cu     -4.004254      7.080442      5.488462
  Cu     -5.387535      9.798532      1.845724
  S      -7.368313      9.554505      2.805820
  C      -8.402273      8.618489      1.624871
  H      -9.428721      8.621818      1.995177
  H      -8.386900      9.086807      0.641408
  H      -8.065594      7.585496      1.544576
  S      -3.183319      9.834262      1.449355
  C      -2.985499      8.477628      0.238414
  H      -1.924489      8.241591      0.149929
  H      -3.517929      7.580636      0.551345
  H      -3.357407      8.790566     -0.737273
25
Coordinates from ORCA-job 4_Cu5C4H12S4 E -9948.624988648158
  Cu     -5.999198      7.736236      3.805841
  Cu     -3.480654      8.514815      3.452556
  S      -7.549456      5.852273      3.951918
  C      -9.110821      6.700700      4.384522
  H      -8.931048      7.748614      4.621822
  H      -9.595067      6.210800      5.228367
  H      -9.777755      6.647979      3.522442
  Cu     -6.408613      5.694511      5.788887
  S      -4.788227      5.772396      7.264420
  H      -6.159101      6.762398      9.009377
  H      -5.671612      7.987797      7.820381
  C      -5.341369      7.113976      8.380249
  H      -4.505762      7.402067      9.018974
  Cu     -4.022313      7.085882      5.462100
  Cu     -5.392265      9.783541      1.879960
  S      -7.327981      9.538142      2.825276
  C      -8.369500      8.615527      1.638324
  H      -9.395554      8.620008      2.009749
  H      -8.352890      9.092091      0.658946
  H      -8.035985      7.582239      1.549795
  S      -3.232705      9.813367      1.499991
  C      -3.032588      8.461624      0.281952
  H      -1.971203      8.227600      0.193077
  H      -3.564438      7.563254      0.592023
  H      -3.404739      8.779205     -0.692082
25
Coordinates from ORCA-job 4_Cu5C4H12S4 E -9948.632107841950
  Cu     -5.992959      7.736414      3.807648
  Cu     -3.515821      8.505960      3.465311
  S      -7.510717      5.874264      3.950784
  C      -9.084547      6.702273      4.383127
  H      -8.915564      7.750160      4.628268
  H      -9.564661      6.200935      5.222502
  H      -9.748869      6.648036      3.519111
  Cu     -6.393794      5.712559      5.755396
  S      -4.795457      5.796321      7.197308
  H      -6.161868      6.772014      8.954693
  H      -5.684298      8.005645      7.769007
  C      -5.348543      7.130754      8.323977
  H      -4.510670      7.418257      8.959919
  Cu     -4.045629      7.093073      5.432391
  Cu     -5.396711      9.765789      1.916458
  S      -7.294751      9.518204      2.847266
  C      -8.347999      8.615316      1.653566
  H      -9.372963      8.621418      2.027998
  H      -8.330891      9.103447      0.679997
  H      -8.019397      7.581607      1.552646
  S      -3.273410      9.788078      1.553208
  C      -3.067829      8.443635      0.325933
  H      -2.006050      8.210276      0.240612
  H      -3.601655      7.543983      0.628938
  H      -3.435790      8.768620     -0.647198
25
Coordinates from ORCA-job 4_Cu5C4H12S4 E -9948.636450719045
  Cu     -5.992382      7.736434      3.807815
  Cu     -3.557176      8.495798      3.477709
  S      -7.478560      5.899359      3.939634
  C      -9.069605      6.697118      4.369501
  H      -8.917003      7.744584      4.627076
  H      -9.545198      6.178917      5.201083
  H      -9.728377      6.641477      3.501361
  Cu     -6.376919      5.733171      5.720359
  S      -4.790717      5.826621      7.137523
  H      -6.146708      6.783157      8.914027
  H      -5.689978      8.026507      7.729097
  C      -5.342536      7.151982      8.277475
  H      -4.500074      7.442167      8.905988
  Cu     -4.074425      7.101235      5.399654
  Cu     -5.400111      9.745561      1.955395
  S      -7.272263      9.494673      2.874251
  C      -8.342946      8.621041      1.672989
  H      -9.365505      8.628776      2.053852
  H      -8.327074      9.126125      0.708163
  H      -8.021543      7.587081      1.552807
  S      -3.299767      9.757167      1.606724
  C      -3.086493      8.422045      0.368768
  H      -2.024670      8.186139      0.292221
  H      -3.626671      7.522242      0.659956
  H      -3.444145      8.757664     -0.604560
25
Coordinates from ORCA-job 4_Cu5C4H12S4 E -9948.639181983079
  Cu     -5.995061      7.736362      3.807038
  Cu     -3.597409      8.486906      3.489301
  S      -7.451813      5.921645      3.915470
  C      -9.065302      6.676961      4.338518
  H      -8.936517      7.722941      4.615021
  H      -9.536870      6.134802      5.156955
  H      -9.713692      6.621042      3.462700
  Cu     -6.355945      5.752750      5.687051
  S      -4.773368      5.862477      7.096902
  H      -6.117557      6.799753      8.892476
  H      -5.692056      8.050286      7.702472
  C      -5.326669      7.180137      8.246180
  H      -4.479202      7.479862      8.863241
  Cu     -4.102640      7.108175      5.368210
  Cu     -5.399183      9.726603      1.995040
  S      -7.261438      9.473465      2.909301
  C      -8.356933      8.640923      1.701170
  H      -9.374850      8.649367      2.094066
  H      -8.345949      9.169934      0.749235
  H      -8.045588      7.607482      1.552249
  S      -3.304956      9.721665      1.650865
  C      -3.088345      8.394287      0.404127
  H      -2.027917      8.148951      0.340080
  H      -3.641393      7.497980      0.681719
  H      -3.430193      8.742285     -0.570518
25
Coordinates from ORCA-job 4_Cu5C4H12S4 E -9948.641297193766
  Cu     -5.996128      7.736333      3.806727
  Cu     -3.624623      8.475042      3.494905
  S      -7.428673      5.934239      3.883837
  C      -9.067418      6.638835      4.292650
  H      -8.969044      7.682643      4.589971
  H      -9.535618      6.069812      5.094602
  H      -9.700791      6.581447      3.406154
  Cu     -6.331364      5.771813      5.663441
  S      -4.749571      5.899403      7.086069
  H      -6.088553      6.820111      8.892878
  H      -5.695414      8.074108      7.694743
  C      -5.310758      7.211602      8.237386
  H      -4.461034      7.525914      8.843833
  Cu     -4.123242      7.118663      5.348735
  Cu     -5.390052      9.708492      2.028414
  S      -7.258152      9.461627      2.948592
  C      -8.385227      8.678181      1.738229
  H      -9.396257      8.688723      2.148152
  H      -8.381623      9.233938      0.801614
  H      -8.088532      7.645626      1.555434
  S      -3.288733      9.685887      1.673296
  C      -3.077966      8.363576      0.420541
  H      -2.020536      8.103641      0.366890
  H      -3.647092      7.473899      0.686823
  H      -3.404444      8.723485     -0.555049
25
Coordinates from ORCA-job 4_Cu5C4H12S4 E -9948.643084293371
  Cu     -5.995361      7.736354      3.806950
  Cu     -3.638123      8.453446      3.488109
  S      -7.410274      5.933941      3.851877
  C      -9.073417      6.586064      4.239652
  H      -9.009013      7.627880      4.553818
  H      -9.538125      5.992724      5.025897
  H      -9.689541      6.523541      3.341567
  Cu     -6.306151      5.793233      5.653718
  S      -4.725033      5.935270      7.107106
  H      -6.067941      6.837876      8.918078
  H      -5.701676      8.095614      7.715280
  C      -5.300186      7.240608      8.257564
  H      -4.451911      7.569644      8.858095
  Cu     -4.139423      7.139391      5.346918
  Cu     -5.372842      9.688273      2.050434
  S      -7.259713      9.462400      2.985434
  C      -8.421371      8.729749      1.779014
  H      -9.424311      8.746148      2.207872
  H      -8.424491      9.309732      0.857170
  H      -8.144439      7.697653      1.563801
  S      -3.254910      9.651691      1.669179
  C      -3.056742      8.335485      0.409577
  H      -2.002920      8.060691      0.360370
  H      -3.640263      7.452411      0.666450
  H      -3.372668      8.707220     -0.565062
25
Coordinates from ORCA-job 4_Cu5C4H12S4 E -9948.643954869742
  Cu     -5.993805      7.736395      3.807404
  Cu     -3.645044      8.434494      3.476466
  S      -7.394886      5.918864      3.829548
  C      -9.073690      6.536185      4.198769
  H      -9.033744      7.575936      4.524146
  H      -9.538121      5.927012      4.973077
  H      -9.675878      6.471125      3.291429
  Cu     -6.286811      5.807674      5.653077
  S      -4.708745      5.961449      7.139411
  H      -6.064179      6.851762      8.945868
  H      -5.711369      8.111263      7.741544
  C      -5.300284      7.261943      8.285430
  H      -4.456796      7.602312      8.886421
  Cu     -4.152495      7.157740      5.352758
  Cu     -5.356102      9.674854      2.061540
  S      -7.259448      9.477913      3.012306
  C      -8.446060      8.778912      1.812665
  H      -9.442321      8.798433      2.256752
  H      -8.456158      9.374544      0.900819
  H      -8.183881      7.747765      1.574870
  S      -3.222528      9.626901      1.650991
  C      -3.040812      8.314615      0.386295
  H      -1.990188      8.028262      0.334309
  H      -3.633582      7.436686      0.639300
  H      -3.353917      8.694002     -0.586327
25
Coordinates from ORCA-job 4_Cu5C4H12S4 E -9948.644280641009
  Cu     -5.984755      7.736652      3.810029
  Cu     -3.641173      8.429972      3.472982
  S      -7.372287      5.900252      3.816684
  C      -9.057875      6.503942      4.176176
  H      -9.028202      7.539954      4.514166
  H      -9.527047      5.883500      4.938741
  H      -9.650748      6.446482      3.262110
  Cu     -6.270216      5.809321      5.650937
  S      -4.707535      5.973597      7.160359
  H      -6.088316      6.867931      8.945354
  H      -5.725864      8.122544      7.739443
  C      -5.317897      7.277363      8.292022
  H      -4.483437      7.624364      8.901836
  Cu     -4.151333      7.162399      5.357703
  Cu     -5.343163      9.674050      2.072251
  S      -7.248237      9.497483      3.034975
  C      -8.446484      8.811592      1.839719
  H      -9.438081      8.823908      2.294582
  H      -8.467447      9.418052      0.935095
  H      -8.186428      7.783832      1.585715
  S      -3.209671      9.615148      1.634124
  C      -3.051337      8.298397      0.371543
  H      -2.003266      8.005078      0.307377
  H      -3.646343      7.424633      0.633489
  H      -3.373702      8.676593     -0.598545
25
Coordinates from ORCA-job 4_Cu5C4H12S4 E -9948.644616575359
  Cu     -5.965803      7.737191      3.815526
  Cu     -3.631920      8.429497      3.472111
  S      -7.327746      5.870832      3.797891
  C      -9.021197      6.457546      4.150600
  H      -9.003045      7.484766      4.514586
  H      -9.497714      5.816531      4.891616
  H      -9.602402      6.420304      3.227952
  Cu     -6.241005      5.806120      5.642380
  S      -4.713131      5.988611      7.184915
  H      -6.143651      6.897604      8.922801
  H      -5.753534      8.140233      7.713871
  C      -5.357322      7.302098      8.285507
  H      -4.540941      7.658967      8.913961
  Cu     -4.144021      7.163348      5.363384
  Cu     -5.323272      9.678653      2.095061
  S      -7.222259      9.528910      3.074216
  C      -8.431650      8.859454      1.880224
  H      -9.416928      8.852063      2.348878
  H      -8.471400      9.485745      0.989577
  H      -8.167881      7.840265      1.597958
  S      -3.200478      9.600226      1.610616
  C      -3.086775      8.271531      0.356352
  H      -2.043478      7.967685      0.266924
  H      -3.682424      7.405131      0.640565
  H      -3.430867      8.643729     -0.608605
25
Coordinates from ORCA-job 4_Cu5C4H12S4 E -9948.644762236518
  Cu     -5.956492      7.737451      3.818226
  Cu     -3.630116      8.430307      3.471845
  S      -7.301406      5.856726      3.788511
  C      -8.997624      6.435438      4.144997
  H      -8.982524      7.453836      4.532677
  H      -9.478491      5.777557      4.868387
  H      -9.573834      6.419522      3.218562
  Cu     -6.223808      5.802326      5.633886
  S      -4.717587      5.995551      7.192027
  H      -6.178453      6.915082      8.899051
  H      -5.768403      8.149865      7.688744
  C      -5.381501      7.315775      8.272659
  H      -4.576441      7.677607      8.912845
  Cu     -4.142592      7.162617      5.364589
  Cu     -5.313508      9.683211      2.111385
  S      -7.205796      9.544230      3.096010
  C      -8.415921      8.882680      1.897222
  H      -9.397889      8.854199      2.372067
  H      -8.469641      9.525317      1.018890
  H      -8.142529      7.872500      1.593165
  S      -3.200063      9.593159      1.602343
  C      -3.113314      8.256417      0.354492
  H      -2.073039      7.947195      0.249174
  H      -3.707889      7.394359      0.653977
  H      -3.471986      8.624115     -0.606866
25
Coordinates from ORCA-job 4_Cu5C4H12S4 E -9948.644828549850
  Cu     -5.954322      7.737507      3.818855
  Cu     -3.630147      8.431980      3.471132
  S      -7.291642      5.852927      3.786283
  C      -8.986563      6.432219      4.151513
  H      -8.968073      7.443656      4.556600
  H      -9.470313      5.763507      4.863024
  H      -9.562168      6.434391      3.224559
  Cu     -6.216547      5.796551      5.628131
  S      -4.720016      5.994902      7.190994
  H      -6.195632      6.921941      8.881657
  H      -5.774200      8.151650      7.669857
  C      -5.393014      7.319821      8.260757
  H      -4.593393      7.683826      8.906525
  Cu     -4.142900      7.160915      5.365202
  Cu     -5.310760      9.689267      2.120050
  S      -7.198949      9.548497      3.103058
  C      -8.403275      8.886572      1.897579
  H      -9.384062      8.840056      2.373460
  H      -8.466341      9.539690      1.027581
  H      -8.118091      7.883784      1.580517
  S      -3.202690      9.593656      1.601922
  C      -3.129172      8.251601      0.358455
  H      -2.090389      7.940004      0.245545
  H      -3.722780      7.391993      0.666851
  H      -3.495407      8.616124     -0.601240
25
Coordinates from ORCA-job 4_Cu5C4H12S4 E -9948.644845148512
  Cu     -5.954510      7.737499      3.818801
  Cu     -3.629472      8.432940      3.469590
  S      -7.288093      5.853466      3.785400
  C      -8.980973      6.434743      4.159099
  H      -8.958525      7.441396      4.575574
  H      -9.465893      5.759091      4.863241
  H      -9.557409      6.449367      3.232813
  Cu     -6.212044      5.789848      5.623785
  S      -4.720267      5.992381      7.188989
  H      -6.204355      6.924329      8.870097
  H      -5.778236      8.150058      7.655615
  C      -5.399291      7.320724      8.251440
  H      -4.602653      7.687445      8.899343
  Cu     -4.143095      7.159953      5.366883
  Cu     -5.309630      9.696130      2.126032
  S      -7.196396      9.548130      3.105712
  C      -8.394369      8.884458      1.894194
  H      -9.374847      8.825479      2.369254
  H      -8.462720      9.544329      1.029690
  H      -8.100013      7.886826      1.569554
  S      -3.204100      9.596126      1.603456
  C      -3.139399      8.250236      0.362987
  H      -2.101853      7.935798      0.246715
  H      -3.733884      7.393162      0.676696
  H      -3.508819      8.613125     -0.596093
25
Coordinates from ORCA-job 4_Cu5C4H12S4 E -9948.644856345618
  Cu     -5.954393      7.737501      3.818835
  Cu     -3.627279      8.432672      3.467530
  S      -7.284580      5.854920      3.783331
  C      -8.976700      6.435462      4.162406
  H      -8.953007      7.439571      4.584828
  H      -9.460901      5.755394      4.862769
  H      -9.553936      6.455949      3.236770
  Cu     -6.206653      5.783532      5.620208
  S      -4.718673      5.991276      7.188924
  H      -6.209971      6.925799      8.862766
  H      -5.784052      8.147889      7.644337
  C      -5.404456      7.322110      8.244644
  H      -4.610325      7.693462      8.892954
  Cu     -4.142351      7.160292      5.369794
  Cu     -5.307319      9.702668      2.131844
  S      -7.194459      9.546832      3.109361
  C      -8.388953      8.884012      1.893693
  H      -9.369453      8.819148      2.367862
  H      -8.458947      9.548271      1.032698
  H      -8.090501      7.889076      1.564656
  S      -3.202843      9.597309      1.604356
  C      -3.147321      8.248484      0.365992
  H      -2.111430      7.929291      0.248101
  H      -3.744940      7.394856      0.683082
  H      -3.517403      8.611264     -0.592873
25
Coordinates from ORCA-job 4_Cu5C4H12S4 E -9948.644870219034
  Cu     -5.952985      7.737542      3.819243
  Cu     -3.623662      8.431635      3.465926
  S      -7.279316      5.855496      3.780320
  C      -8.972623      6.432166      4.159686
  H      -8.951131      7.436062      4.582742
  H      -9.455079      5.750294      4.859462
  H      -9.549713      6.451902      3.233941
  Cu     -6.200562      5.779353      5.618040
  S      -4.716305      5.992516      7.191086
  H      -6.214208      6.927597      8.859060
  H      -5.791295      8.146680      7.636507
  C      -5.409335      7.324835      8.240681
  H      -4.617609      7.701792      8.888671
  Cu     -4.140207      7.161488      5.373069
  Cu     -5.303553      9.707134      2.136871
  S      -7.191595      9.546488      3.114728
  C      -8.387133      8.887474      1.898117
  H      -9.367609      8.823364      2.372443
  H      -8.456062      9.553615      1.038523
  H      -8.090208      7.892644      1.567367
  S      -3.199624      9.596227      1.603819
  C      -3.153419      8.245448      0.366776
  H      -2.119435      7.920524      0.247953
  H      -3.755308      7.395568      0.685810
  H      -3.522871      8.609197     -0.591974
25
Coordinates from ORCA-job 4_Cu5C4H12S4 E -9948.644882521834
  Cu     -5.950589      7.737612      3.819938
  Cu     -3.619513      8.430510      3.465322
  S      -7.272816      5.854690      3.777584
  C      -8.968592      6.426007      4.153300
  H      -8.951204      7.430619      4.574899
  H      -9.449809      5.743592      4.853370
  H      -9.544213      6.442352      3.226548
  Cu     -6.195152      5.777816      5.617444
  S      -4.714522      5.995324      7.194158
  H      -6.218283      6.930145      8.857079
  H      -5.797899      8.147117      7.631591
  C      -5.413886      7.328428      8.238734
  H      -4.624454      7.710086      8.886763
  Cu     -4.137088      7.162820      5.375783
  Cu     -5.299385      9.708951      2.140246
  S      -7.187615      9.547593      3.120502
  C      -8.387462      8.893737      1.905570
  H      -9.367415      8.833070      2.381478
  H      -8.455218      9.560492      1.046382
  H      -8.094736      7.897956      1.573868
  S      -3.196333      9.593564      1.602220
  C      -3.158119      8.241591      0.366047
  H      -2.125804      7.911850      0.246034
  H      -3.763494      7.394712      0.686445
  H      -3.527243      8.606409     -0.592436
25
Coordinates from ORCA-job 4_Cu5C4H12S4 E -9948.644892582581
  Cu     -5.946890      7.737720      3.821011
  Cu     -3.613689      8.428748      3.465135
  S      -7.262923      5.852531      3.774493
  C      -8.962841      6.415587      4.142969
  H      -8.951978      7.420697      4.563670
  H      -9.443519      5.731827      4.842086
  H      -9.535005      6.428176      3.213990
  Cu     -6.188590      5.777727      5.617766
  S      -4.712989      6.000259      7.198487
  H      -6.224597      6.934619      8.854460
  H      -5.805769      8.149414      7.626368
  C      -5.420111      7.334082      8.236975
  H      -4.633901      7.720845      8.885900
  Cu     -4.132368      7.164886      5.379032
  Cu     -5.293678      9.709399      2.143481
  S      -7.181034      9.550222      3.128368
  C      -8.388671      8.904284      1.917209
  H      -9.367096      8.847509      2.396785
  H      -8.456552      9.572399      1.059096
  H      -8.101897      7.907653      1.582785
  S      -3.192471      9.588784      1.599455
  C      -3.164026      8.235590      0.364295
  H      -2.133682      7.900590      0.241882
  H      -3.772819      7.391926      0.686696
  H      -3.533747      8.601567     -0.593527
25
Coordinates from ORCA-job 4_Cu5C4H12S4 E -9948.644927291358
  Cu     -5.941895      7.737865      3.822460
  Cu     -3.605744      8.425584      3.465015
  S      -7.248471      5.848691      3.771020
  C      -8.954514      6.399556      4.128426
  H      -8.953082      7.403713      4.551577
  H      -9.435961      5.711647      4.822960
  H      -9.520285      6.410614      3.195508
  Cu     -6.180537      5.779223      5.619090
  S      -4.712052      6.008082      7.204323
  H      -6.234594      6.941949      8.850323
  H      -5.815202      8.154461      7.620260
  C      -5.428937      7.342636      8.235152
  H      -4.647333      7.734799      8.886426
  Cu     -4.125897      7.168466      5.383340
  Cu     -5.286096      9.708363      2.146693
  S      -7.170901      9.554763      3.138968
  C      -8.390250      8.920506      1.933695
  H      -9.365470      8.865527      2.419987
  H      -8.461445      9.592659      1.078985
  H      -8.110165      7.924371      1.592143
  S      -3.188158      9.581113      1.595141
  C      -3.172014      8.226552      0.361254
  H      -2.144020      7.885950      0.234476
  H      -3.783797      7.386299      0.686904
  H      -3.544023      8.593653     -0.595258
25
Coordinates from ORCA-job 4_Cu5C4H12S4 E -9948.644930946655
  Cu     -5.935858      7.738038      3.824211
  Cu     -3.595578      8.419931      3.464389
  S      -7.228921      5.842898      3.767135
  C      -8.942929      6.377391      4.110059
  H      -8.953872      7.377623      4.542231
  H      -9.426993      5.680308      4.793634
  H      -9.498679      6.392529      3.171211
  Cu     -6.171193      5.782462      5.621353
  S      -4.712541      6.019382      7.211818
  H      -6.249598      6.952770      8.844295
  H      -5.826108      8.163172      7.613617
  C      -5.441132      7.354570      8.233557
  H      -4.665721      7.751740      8.889233
  Cu     -4.117955      7.174642      5.389226
  Cu     -5.276833      9.705672      2.149830
  S      -7.156792      9.561512      3.152612
  C      -8.391445      8.942965      1.955058
  H      -9.361170      8.884341      2.451768
  H      -8.471183      9.623979      1.108075
  H      -8.117178      7.950240      1.599205
  S      -3.183981      9.569920      1.588714
  C      -3.182548      8.213966      0.356273
  H      -2.157166      7.868099      0.222541
  H      -3.796115      7.376928      0.686835
  H      -3.559355      8.581960     -0.598011
25
Coordinates from ORCA-job 4_Cu5C4H12S4 E -9948.644957254392
  Cu     -5.930107      7.738200      3.825877
  Cu     -3.585140      8.411329      3.462575
  S      -7.207655      5.836106      3.763126
  C      -8.929719      6.353198      4.091623
  H      -8.953669      7.345712      4.540582
  H      -9.417963      5.641686      4.757274
  H      -9.473318      6.380477      3.146007
  Cu     -6.162461      5.787011      5.623772
  S      -4.715257      6.032750      7.219896
  H      -6.267584      6.965256      8.838221
  H      -5.836950      8.174581      7.608955
  C      -5.455130      7.367963      8.233425
  H      -4.686252      7.768313      8.894884
  Cu     -4.110572      7.183757      5.396215
  Cu     -5.267937      9.701639      2.152527
  S      -7.141354      9.569344      3.167262
  C      -8.391416      8.967535      1.977318
  H      -9.353871      8.897319      2.486417
  H      -8.485008      9.662468      1.143033
  H      -8.119554      7.982092      1.600206
  S      -3.181261      9.556555      1.580636
  C      -3.193742      8.199852      0.349113
  H      -2.170616      7.850548      0.207052
  H      -3.807175      7.364898      0.685167
  H      -3.577137      8.568448     -0.602295
25
Coordinates from ORCA-job 4_Cu5C4H12S4 E -9948.644976163627
  Cu     -5.926708      7.738292      3.826858
  Cu     -3.578404      8.401916      3.459743
  S      -7.192036      5.830624      3.759336
  C      -8.919298      6.335709      4.079475
  H      -8.952181      7.318941      4.547657
  H      -9.411491      5.609240      4.725937
  H      -9.453206      6.379637      3.129032
  Cu     -6.157108      5.790953      5.624658
  S      -4.719417      6.044041      7.226014
  H      -6.282082      6.974852      8.835431
  H      -5.844961      8.184704      7.608914
  C      -5.466348      7.378283      8.235580
  H      -4.701792      7.779108      8.901764
  Cu     -4.106898      7.193466      5.402067
  Cu     -5.262744      9.698002      2.154702
  S      -7.130492      9.575574      3.178731
  C      -8.390034      8.985361      1.992883
  H      -9.346022      8.898958      2.511488
  H      -8.497992      9.694732      1.172479
  H      -8.115926      8.009009      1.594608
  S      -3.180909      9.545158      1.573413
  C      -3.201517      8.188992      0.341456
  H      -2.179489      7.839057      0.193099
  H      -3.813429      7.354370      0.681078
  H      -3.590361      8.558062     -0.607536
25
Coordinates from ORCA-job 4_Cu5C4H12S4 E -9948.644993395315
  Cu     -5.925865      7.738307      3.827097
  Cu     -3.576085      8.393991      3.456705
  S      -7.184520      5.827516      3.755372
  C      -8.913355      6.328220      4.074998
  H      -8.949347      7.303868      4.558364
  H      -9.407814      5.590826      4.707297
  H      -9.442659      6.386884      3.122818
  Cu     -6.155163      5.792422      5.623101
  S      -4.723490      6.051217      7.229204
  H      -6.289789      6.979327      8.836954
  H      -5.850549      8.190652      7.612580
  C      -5.473018      7.383667      8.239145
  H      -4.709712      7.783719      8.907196
  Cu     -4.106980      7.201446      5.405747
  Cu     -5.261862      9.696605      2.157079
  S      -7.126431      9.579005      3.186052
  C      -8.387812      8.993085      1.999733
  H      -9.340068      8.892189      2.522494
  H      -8.505822      9.713030      1.189922
  H      -8.108619      8.024372      1.586847
  S      -3.182258      9.537828      1.568653
  C      -3.204947      8.183325      0.334959
  H      -2.183015      7.834127      0.184342
  H      -3.815860      7.348195      0.675079
  H      -3.595805      8.553220     -0.612875
25
Coordinates from ORCA-job 4_Cu5C4H12S4 E -9948.644987825184
  Cu     -5.925171      7.738320      3.827293
  Cu     -3.574570      8.388421      3.454260
  S      -7.180728      5.826271      3.750791
  C      -8.909277      6.326575      4.073820
  H      -8.945165      7.299281      4.562972
  H      -9.403275      5.584832      4.701375
  H      -9.438634      6.391067      3.122053
  Cu     -6.153269      5.790914      5.619844
  S      -4.725879      6.055349      7.230743
  H      -6.293475      6.979624      8.839724
  H      -5.857717      8.191866      7.614991
  C      -5.478005      7.385769      8.241349
  H      -4.714858      7.787168      8.908712
  Cu     -4.107299      7.207039      5.408527
  Cu     -5.262085      9.698147      2.160816
  S      -7.125742      9.580372      3.191931
  C      -8.385095      8.994924      2.002891
  H      -9.336867      8.888218      2.525371
  H      -8.505482      9.719163      1.197270
  H      -8.102884      8.029241      1.585127
  S      -3.183225      9.533601      1.566144
  C      -3.207852      8.181004      0.330461
  H      -2.186349      7.830448      0.180359
  H      -3.820536      7.346644      0.669222
  H      -3.597406      8.552781     -0.617181
25
Coordinates from ORCA-job 4_Cu5C4H12S4 E -9948.644980590960
  Cu     -5.923120      7.738374      3.827885
  Cu     -3.572132      8.384896      3.452859
  S      -7.176993      5.825654      3.746363
  C      -8.905164      6.325975      4.072312
  H      -8.940480      7.299851      4.559157
  H      -9.396997      5.585178      4.702622
  H      -9.436745      6.387812      3.121573
  Cu     -6.150043      5.788591      5.616599
  S      -4.726405      6.058333      7.231823
  H      -6.296502      6.977927      8.841082
  H      -5.866748      8.190533      7.614643
  C      -5.483187      7.386691      8.241532
  H      -4.720875      7.791662      8.907640
  Cu     -4.106174      7.210658      5.410950
  Cu     -5.261218      9.700576      2.165242
  S      -7.124985      9.581116      3.197658
  C      -8.382468      8.995717      2.006364
  H      -9.335702      8.891564      2.526751
  H      -8.499510      9.719165      1.199583
  H      -8.100950      8.028859      1.590872
  S      -3.182928      9.530609      1.565001
  C      -3.212064      8.179820      0.327549
  H      -2.191749      7.825636      0.178115
  H      -3.828396      7.347498      0.664663
  H      -3.599311      8.554346     -0.619973
25
Coordinates from ORCA-job 4_Cu5C4H12S4 E -9948.644984906216
  Cu     -5.919915      7.738465      3.828813
  Cu     -3.569096      8.382827      3.452392
  S      -7.173091      5.825133      3.742894
  C      -8.901003      6.325620      4.070637
  H      -8.935547      7.302364      4.551803
  H      -9.390606      5.588321      4.706694
  H      -9.435267      6.381408      3.120976
  Cu     -6.146272      5.786854      5.614100
  S      -4.725894      6.060781      7.232595
  H      -6.300136      6.975369      8.840475
  H      -5.875716      8.188450      7.612741
  C      -5.488570      7.387017      8.240501
  H      -4.728032      7.796044      8.906139
  Cu     -4.103972      7.212870      5.412928
  Cu     -5.259461      9.702462      2.169340
  S      -7.123572      9.581790      3.202666
  C      -8.379874      8.996264      2.010004
  H      -9.335111      8.898028      2.527961
  H      -8.491785      9.716422      1.199610
  H      -8.100593      8.026495      1.599769
  S      -3.181952      9.528204      1.564661
  C      -3.217130      8.179200      0.325547
  H      -2.198348      7.820869      0.175623
  H      -3.837077      7.349079      0.661441
  H      -3.602826      8.556706     -0.621443
25
Coordinates from ORCA-job 4_Cu5C4H12S4 E -9948.644996485977
  Cu     -5.915871      7.738581      3.829987
  Cu     -3.565477      8.381333      3.452443
  S      -7.168985      5.824560      3.740486
  C      -8.896736      6.325260      4.069242
  H      -8.930395      7.304708      4.545005
  H      -9.384841      5.591678      4.710684
  H      -9.433225      6.375467      3.120483
  Cu     -6.142385      5.786043      5.612416
  S      -4.725023      6.063138      7.233230
  H      -6.305164      6.972644      8.837927
  H      -5.883815      8.186657      7.610140
  C      -5.494333      7.387147      8.238907
  H      -4.736510      7.799723      8.905461
  Cu     -4.100972      7.214550      5.414791
  Cu     -5.257123      9.703444      2.172826
  S      -7.121422      9.582543      3.206887
  C      -8.377041      8.996826      2.013463
  H      -9.333963      8.904061      2.529389
  H      -8.484618      9.713432      1.199375
  H      -8.099761      8.024320      1.608310
  S      -3.180752      9.525904      1.564627
  C      -3.222828      8.178745      0.323813
  H      -2.205659      7.816744      0.171720
  H      -3.845385      7.350404      0.659276
  H      -3.608563      8.559129     -0.622021
25
Coordinates from ORCA-job 4_Cu5C4H12S4 E -9948.644995196533
  Cu     -5.912088      7.738690      3.831086
  Cu     -3.562133      8.380317      3.452729
  S      -7.165746      5.824158      3.739393
  C      -8.893336      6.325120      4.068800
  H      -8.926156      7.305785      4.542146
  H      -9.381046      5.593535      4.712814
  H      -9.430982      6.372988      3.120566
  Cu     -6.139354      5.786173      5.611592
  S      -4.724273      6.065016      7.233647
  H      -6.310657      6.970620      8.834173
  H      -5.889002      8.185893      7.607765
  C      -5.499237      7.387195      8.237392
  H      -4.744343      7.801659      8.906126
  Cu     -4.098054      7.215742      5.416317
  Cu     -5.254997      9.703457      2.175145
  S      -7.119293      9.583099      3.209536
  C      -8.374418      8.997137      2.015656
  H      -9.332158      8.906656      2.530486
  H      -8.480183      9.711808      1.199634
  H      -8.097657      8.023422      1.613013
  S      -3.179798      9.524073      1.564704
  C      -3.227767      8.178419      0.322470
  H      -2.211804      7.814414      0.167000
  H      -3.851063      7.350858      0.658493
  H      -3.615301      8.560808     -0.621818
25
Coordinates from ORCA-job 4_Cu5C4H12S4 E -9948.644997039177
  Cu     -5.909638      7.738760      3.831799
  Cu     -3.559966      8.379816      3.452992
  S      -7.164246      5.824145      3.739277
  C      -8.891612      6.325420      4.069295
  H      -8.923842      7.305704      4.543478
  H      -9.379697      5.593641      4.712822
  H      -9.429399      6.374351      3.121208
  Cu     -6.137821      5.786785      5.611308
  S      -4.723923      6.065996      7.233807
  H      -6.314800      6.969768      8.830856
  H      -5.890564      8.186117      7.606368
  C      -5.502056      7.387194      8.236493
  H      -4.749251      7.801734      8.907560
  Cu     -4.096114      7.216358      5.417245
  Cu     -5.253822      9.702919      2.176217
  S      -7.118090      9.583188      3.210437
  C      -8.372683      8.996935      2.016166
  H      -9.330408      8.905389      2.530812
  H      -8.479034      9.711773      1.200352
  H      -8.094999      8.023644      1.613125
  S      -3.179367      9.523113      1.564772
  C      -3.230623      8.178259      0.321721
  H      -2.215170      7.814107      0.163165
  H      -3.853112      7.350531      0.658835
  H      -3.620609      8.561395     -0.621244
