11
Coordinates from ORCA-job 0_CuC2H6S2 E -2514.846260226173
  Cu     -5.511764      7.532655      4.959335
  S      -3.342271      7.612146      5.886088
  C      -3.913754      7.595213      7.620844
  H      -4.487713      6.691600      7.848740
  H      -4.560974      8.449698      7.841850
  H      -3.065932      7.633273      8.315981
  S      -7.852407      7.459536      3.847775
  C      -7.495339      8.595457      2.462696
  H      -8.376539      8.726352      1.822526
  H      -6.681806      8.222100      1.832890
  H      -7.195530      9.585953      2.818943
11
Coordinates from ORCA-job 0_CuC2H6S2 E -2514.853348545274
  Cu     -5.532648      7.497564      4.929560
  S      -3.394243      7.579297      5.855745
  C      -3.938317      7.607798      7.601833
  H      -4.513842      6.715933      7.857659
  H      -4.565516      8.476312      7.812638
  H      -3.075994      7.650061      8.269144
  S      -7.799572      7.421195      3.848787
  C      -7.467278      8.598414      2.491535
  H      -8.354995      8.724736      1.870053
  H      -6.656695      8.250709      1.847775
  H      -7.184929      9.581961      2.872939
11
Coordinates from ORCA-job 0_CuC2H6S2 E -2514.865413334320
  Cu     -5.576309      7.494797      4.898824
  S      -3.498519      7.584161      5.806166
  C      -3.972789      7.614873      7.576165
  H      -4.529389      6.719555      7.853223
  H      -4.588289      8.484697      7.806097
  H      -3.076609      7.661002      8.191933
  S      -7.719433      7.413650      3.890097
  C      -7.422545      8.596213      2.526526
  H      -8.326613      8.699517      1.929955
  H      -6.621022      8.253829      1.871634
  H      -7.152511      9.581689      2.907048
11
Coordinates from ORCA-job 0_CuC2H6S2 E -2514.872050851727
  Cu     -5.598344      7.491577      4.881715
  S      -3.567757      7.584453      5.775348
  C      -3.994588      7.619252      7.558672
  H      -4.541293      6.722703      7.850750
  H      -4.603306      8.490536      7.800532
  H      -3.077588      7.667794      8.143640
  S      -7.661232      7.409082      3.918781
  C      -7.395410      8.594763      2.548813
  H      -8.312176      8.682851      1.968232
  H      -6.599676      8.257974      1.884199
  H      -7.132660      9.582997      2.926985
11
Coordinates from ORCA-job 0_CuC2H6S2 E -2514.877335639303
  Cu     -5.622541      7.475035      4.856139
  S      -3.666050      7.569740      5.733148
  C      -4.027131      7.627905      7.531339
  H      -4.566269      6.736496      7.851787
  H      -4.621315      8.506545      7.782627
  H      -3.084528      7.678138      8.074888
  S      -7.563603      7.394031      3.954878
  C      -7.357842      8.594363      2.582951
  H      -8.293720      8.659915      2.029141
  H      -6.571673      8.276096      1.898300
  H      -7.109356      9.585717      2.962470
11
Coordinates from ORCA-job 0_CuC2H6S2 E -2514.877958174347
  Cu     -5.582055      7.290227      4.792895
  S      -3.663293      7.363526      5.726805
  C      -4.060839      7.677106      7.490384
  H      -4.681382      6.880233      7.899974
  H      -4.583802      8.625834      7.611105
  H      -3.130693      7.718211      8.055424
  S      -7.478612      7.227054      3.838522
  C      -7.340166      8.616730      2.647454
  H      -8.279090      8.708481      2.102784
  H      -6.539348      8.439136      1.929761
  H      -7.144751      9.557444      3.162560
11
Coordinates from ORCA-job 0_CuC2H6S2 E -2514.878413764604
  Cu     -5.535841      7.123813      4.739215
  S      -3.667000      7.160600      5.753357
  C      -4.090130      7.722215      7.447342
  H      -4.798557      7.042475      7.920729
  H      -4.522983      8.722603      7.432742
  H      -3.180506      7.746441      8.045994
  S      -7.384285      7.094036      3.706112
  C      -7.328194      8.635664      2.710036
  H      -8.267582      8.741114      2.168508
  H      -6.513396      8.604569      1.986678
  H      -7.195555      9.510451      3.346955
11
Coordinates from ORCA-job 0_CuC2H6S2 E -2514.878559223307
  Cu     -5.498186      6.976781      4.695295
  S      -3.684423      6.962668      5.804951
  C      -4.116171      7.763751      7.396121
  H      -4.906256      7.216750      7.910565
  H      -4.447760      8.790843      7.242226
  H      -3.233345      7.777376      8.033955
  S      -7.295898      6.994273      3.566400
  C      -7.315752      8.650216      2.777553
  H      -8.240459      8.760899      2.212580
  H      -6.475822      8.767965      2.093016
  H      -7.269958      9.442458      3.525006
11
Coordinates from ORCA-job 0_CuC2H6S2 E -2514.878531512360
  Cu     -5.494733      6.948799      4.688056
  S      -3.688708      6.922464      5.816656
  C      -4.122072      7.772409      7.381351
  H      -4.925052      7.251680      7.903287
  H      -4.436192      8.799910      7.196501
  H      -3.244299      7.789947      8.026313
  S      -7.285769      6.976562      3.538823
  C      -7.311031      8.652149      2.795382
  H      -8.225440      8.765472      2.214177
  H      -6.458519      8.800335      2.132293
  H      -7.292214      9.424253      3.564829
11
Coordinates from ORCA-job 0_CuC2H6S2 E -2514.878512752716
  Cu     -5.493275      6.933328      4.683618
  S      -3.692675      6.900715      5.821981
  C      -4.126239      7.777557      7.371570
  H      -4.936493      7.271991      7.897230
  H      -4.430122      8.804951      7.169599
  H      -3.251266      7.797000      8.020500
  S      -7.279400      6.966414      3.524766
  C      -7.307391      8.652748      2.806958
  H      -8.215099      8.768072      2.215462
  H      -6.447333      8.818086      2.157694
  H      -7.304736      9.413119      3.588290
11
Coordinates from ORCA-job 0_CuC2H6S2 E -2514.878511801676
  Cu     -5.492604      6.928306      4.681978
  S      -3.694044      6.894024      5.823054
  C      -4.128029      7.779379      7.367689
  H      -4.940932      7.278881      7.894162
  H      -4.428399      8.806741      7.160232
  H      -3.254265      7.799310      8.018313
  S      -7.277314      6.962735      3.520808
  C      -7.305814      8.652677      2.811431
  H      -8.211237      8.769281      2.216574
  H      -6.443298      8.823511      2.166824
  H      -7.308094      9.409136      3.596603
11
Coordinates from ORCA-job 0_CuC2H6S2 E -2514.878507402885
  Cu     -5.492470      6.929049      4.681973
  S      -3.693589      6.895449      5.821698
  C      -4.128449      7.779336      7.366969
  H      -4.941317      7.278134      7.892868
  H      -4.429343      8.806711      7.160246
  H      -3.254947      7.799303      8.017999
  S      -7.278409      6.962674      3.522636
  C      -7.305381      8.652264      2.812062
  H      -8.210497      8.769561      2.216797
  H      -6.442492      8.822218      2.167687
  H      -7.307136      9.409285      3.596733
