11
Coordinates from ORCA-job 0_CuC2H6S2 E -2514.878507402885
  Cu         -5.49247014112342      6.92904850675611      4.68197260177637
  S          -3.69358855126185      6.89544857873928      5.82169772952098
  C          -4.12844880031585      7.77933572537464      7.36696895236793
  H          -4.94131711538800      7.27813379228388      7.89286796103095
  H          -4.42934343501291      8.80671067276814      7.16024611731181
  H          -3.25494702367823      7.79930256295451      8.01799941727949
  S          -7.27840858621467      6.96267374918343      3.52263583671330
  C          -7.30538052821219      8.65226366838264      2.81206237253640
  H          -8.21049700468929      8.76956115286820      2.21679685486772
  H          -6.44249238461325      8.82221819213722      2.16768712959176
  H          -7.30713597949030      9.40928450355191      3.59673324700326
