12
Coordinates from ORCA-job 1_Cu2C2H6S2 E -4154.560870917635
  Cu     -5.511764      7.532655      4.959335
  S      -0.715908      7.772348      7.181896
  C      -1.287391      7.755415      8.916652
  H      -1.861350      6.851802      9.144548
  H      -1.934611      8.609900      9.137658
  H      -0.439569      7.793475      9.611789
  S      -7.852407      7.459536      3.847775
  C      -7.495339      8.595457      2.462696
  H      -8.376539      8.726352      1.822526
  H      -6.681806      8.222100      1.832890
  H      -7.195530      9.585953      2.818943
  Cu     -3.047526      7.662138      6.054629
12
Coordinates from ORCA-job 1_Cu2C2H6S2 E -4154.567583324416
  Cu     -5.500465      7.512384      4.968932
  S      -0.769644      7.763578      7.127366
  C      -1.351157      7.767597      8.859647
  H      -1.925183      6.867681      9.092319
  H      -1.994105      8.626708      9.065064
  H      -0.507845      7.811339      9.550909
  S      -7.792297      7.440999      3.894552
  C      -7.434219      8.594576      2.523263
  H      -8.313382      8.728769      1.890814
  H      -6.622915      8.226665      1.890903
  H      -7.138188      9.578765      2.893939
  Cu     -3.050340      7.648070      6.033628
12
Coordinates from ORCA-job 1_Cu2C2H6S2 E -4154.578885684922
  Cu     -5.482223      7.498791      5.001118
  S      -0.869096      7.775362      7.027061
  C      -1.462216      7.781580      8.757742
  H      -2.029330      6.877609      8.985774
  H      -2.108326      8.639393      8.952132
  H      -0.620156      7.832470      9.445886
  S      -7.690841      7.428666      3.995992
  C      -7.324972      8.586139      2.626960
  H      -8.205862      8.723320      2.002154
  H      -6.518730      8.210339      1.994936
  H      -7.024713      9.564778      3.005365
  Cu     -3.063275      7.648683      5.996217
12
Coordinates from ORCA-job 1_Cu2C2H6S2 E -4154.585553883845
  Cu     -5.466537      7.487962      5.025460
  S      -0.938540      7.782795      6.959201
  C      -1.534426      7.790925      8.690985
  H      -2.096971      6.884010      8.918634
  H      -2.183839      8.647439      8.880129
  H      -0.690548      7.847490      9.377603
  S      -7.621110      7.420227      4.063569
  C      -7.253497      8.580633      2.694904
  H      -8.137673      8.720288      2.074063
  H      -6.450167      8.201075      2.061412
  H      -6.949629      9.556601      3.077302
  Cu     -3.076802      7.647685      5.968076
12
Coordinates from ORCA-job 1_Cu2C2H6S2 E -4154.593176056184
  Cu     -5.439303      7.469904      5.061935
  S      -1.047415      7.791042      6.859920
  C      -1.636221      7.804583      8.597088
  H      -2.191385      6.894351      8.830127
  H      -2.289492      8.659170      8.782407
  H      -0.786393      7.870238      9.277297
  S      -7.513598      7.407041      4.159787
  C      -7.152041      8.573393      2.790767
  H      -8.042771      8.715386      2.177955
  H      -6.353899      8.192045      2.151617
  H      -6.843826      9.546598      3.177171
  Cu     -3.103395      7.643380      5.925266
12
Coordinates from ORCA-job 1_Cu2C2H6S2 E -4154.595577325662
  Cu     -5.392881      7.430712      5.112566
  S      -1.208962      7.793316      6.721542
  C      -1.775429      7.826946      8.470391
  H      -2.322320      6.916433      8.721448
  H      -2.429662      8.681824      8.651201
  H      -0.913841      7.905775      9.135603
  S      -7.354711      7.380045      4.285176
  C      -7.013243      8.566711      2.922398
  H      -7.915519      8.714939      2.326724
  H      -6.225190      8.191301      2.267258
  H      -6.698750      9.534188      3.318430
  Cu     -3.149233      7.624940      5.858600
12
Coordinates from ORCA-job 1_Cu2C2H6S2 E -4154.596628133494
  Cu     -5.388620      7.377283      5.072299
  S      -1.158430      7.734328      6.767488
  C      -1.739347      7.841219      8.507772
  H      -2.310611      6.953648      8.785530
  H      -2.374717      8.716739      8.654303
  H      -0.883152      7.922305      9.179481
  S      -7.385693      7.337951      4.205320
  C      -7.055498      8.584702      2.895436
  H      -7.957830      8.749770      2.304445
  H      -6.262877      8.247058      2.225322
  H      -6.751255      9.538249      3.331438
  Cu     -3.131711      7.563879      5.862504
12
Coordinates from ORCA-job 1_Cu2C2H6S2 E -4154.596832407716
  Cu     -5.365851      7.300599      5.042415
  S      -1.165006      7.665513      6.767805
  C      -1.756502      7.867598      8.495869
  H      -2.354719      7.009927      8.808746
  H      -2.368239      8.766091      8.597055
  H      -0.903902      7.955484      9.171164
  S      -7.356800      7.279610      4.160018
  C      -7.045864      8.601942      2.921602
  H      -7.951794      8.789285      2.343021
  H      -6.251449      8.312526      2.231295
  H      -6.751379      9.533324      3.409318
  Cu     -3.128235      7.485232      5.843029
12
Coordinates from ORCA-job 1_Cu2C2H6S2 E -4154.597133325176
  Cu     -5.305143      7.100889      4.953956
  S      -1.190089      7.480874      6.789247
  C      -1.801932      7.938324      8.458912
  H      -2.472685      7.174112      8.855821
  H      -2.343314      8.885951      8.432324
  H      -0.961117      8.044392      9.145464
  S      -7.278408      7.140123      4.017026
  C      -7.018546      8.644737      2.996534
  H      -7.932538      8.889122      2.454058
  H      -6.219223      8.492276      2.268791
  H      -6.751032      9.500648      3.619660
  Cu     -3.125712      7.275683      5.799544
12
Coordinates from ORCA-job 1_Cu2C2H6S2 E -4154.597144148738
  Cu     -5.318759      7.134360      4.969754
  S      -1.184721      7.510393      6.785647
  C      -1.789802      7.925567      8.468534
  H      -2.445079      7.143007      8.855385
  H      -2.346386      8.864755      8.464537
  H      -0.945253      8.031771      9.150401
  S      -7.296051      7.163680      4.039817
  C      -7.026167      8.638584      2.980058
  H      -7.935950      8.869037      2.424536
  H      -6.221956      8.464289      2.262774
  H      -6.761770      9.510892      3.581383
  Cu     -3.127847      7.310796      5.808512
12
Coordinates from ORCA-job 1_Cu2C2H6S2 E -4154.597139101575
  Cu     -5.347064      7.212039      5.010302
  S      -1.183625      7.589213      6.775425
  C      -1.763406      7.895939      8.489790
  H      -2.384652      7.073051      8.847936
  H      -2.349480      8.815248      8.547044
  H      -0.907737      7.994097      9.158773
  S      -7.331068      7.221174      4.092835
  C      -7.040657      8.621980      2.942885
  H      -7.944259      8.823297      2.366446
  H      -6.232585      8.394972      2.244959
  H      -6.773475      9.528953      3.489103
  Cu     -3.141731      7.397169      5.825838
12
Coordinates from ORCA-job 1_Cu2C2H6S2 E -4154.597162604251
  Cu     -5.333597      7.166330      4.988004
  S      -1.186931      7.543165      6.780339
  C      -1.775993      7.912644      8.479092
  H      -2.414064      7.111821      8.857125
  H      -2.346878      8.842889      8.502729
  H      -0.924465      8.017294      9.152375
  S      -7.312880      7.188375      4.060919
  C      -7.033094      8.632143      2.962459
  H      -7.937954      8.847114      2.392960
  H      -6.222953      8.437120      2.257270
  H      -6.773286      9.520956      3.541114
  Cu     -3.137646      7.347280      5.816952
12
Coordinates from ORCA-job 1_Cu2C2H6S2 E -4154.597176631710
  Cu     -5.334891      7.159302      4.985586
  S      -1.190455      7.535812      6.780473
  C      -1.775455      7.914684      8.478456
  H      -2.413325      7.116401      8.862121
  H      -2.345490      8.845515      8.498614
  H      -0.922406      8.022116      9.149362
  S      -7.312226      7.184405      4.054564
  C      -7.032386      8.634028      2.964008
  H      -7.934562      8.847035      2.389539
  H      -6.216764      8.445944      2.263234
  H      -6.780652      9.521660      3.547995
  Cu     -3.141128      7.340228      5.817386
12
Coordinates from ORCA-job 1_Cu2C2H6S2 E -4154.597216030534
  Cu     -5.346547      7.151001      4.985719
  S      -1.202930      7.526522      6.778515
  C      -1.767469      7.915536      8.480752
  H      -2.397713      7.117999      8.878186
  H      -2.340160      8.844664      8.502029
  H      -0.906432      8.030352      9.140120
  S      -7.317922      7.182068      4.042974
  C      -7.033025      8.637167      2.961423
  H      -7.922925      8.835997      2.363166
  H      -6.195980      8.463565      2.282384
  H      -6.811728      9.528198      3.552457
  Cu     -3.156911      7.334062      5.823612
12
Coordinates from ORCA-job 1_Cu2C2H6S2 E -4154.597235505561
  Cu     -5.363393      7.159817      4.994199
  S      -1.213922      7.536780      6.774358
  C      -1.754843      7.910272      8.487375
  H      -2.372547      7.105233      8.889226
  H      -2.334229      8.834718      8.523928
  H      -0.884594      8.027453      9.134111
  S      -7.330384      7.190419      4.042840
  C      -7.036430      8.636039      2.951216
  H      -7.914257      8.817739      2.330040
  H      -6.181757      8.464416      2.293857
  H      -6.839129      9.536322      3.536649
  Cu     -3.174253      7.347922      5.833537
12
Coordinates from ORCA-job 1_Cu2C2H6S2 E -4154.597242548813
  Cu     -5.363677      7.162153      4.994482
  S      -1.212807      7.540427      6.774201
  C      -1.754661      7.909755      8.487933
  H      -2.374371      7.104701      8.886703
  H      -2.332261      8.835246      8.526587
  H      -0.884710      8.023232      9.135741
  S      -7.330905      7.190379      4.043514
  C      -7.036749      8.635048      2.950435
  H      -7.916153      8.818761      2.332058
  H      -6.184611      8.461033      2.290426
  H      -6.835245      9.534991      3.535010
  Cu     -3.173591      7.351405      5.834246
12
Coordinates from ORCA-job 1_Cu2C2H6S2 E -4154.597209755801
  Cu     -5.357572      7.152314      4.985100
  S      -1.207940      7.533923      6.776665
  C      -1.760418      7.915030      8.484888
  H      -2.397102      7.120851      8.878813
  H      -2.323257      8.849908      8.515722
  H      -0.894726      8.015551      9.140525
  S      -7.324300      7.176470      4.032804
  C      -7.034687      8.635370      2.956593
  H      -7.921657      8.834672      2.353974
  H      -6.193438      8.464637      2.281950
  H      -6.817711      9.525003      3.551520
  Cu     -3.166930      7.343402      5.832783
12
Coordinates from ORCA-job 1_Cu2C2H6S2 E -4154.597238879453
  Cu     -5.362245      7.154279      4.988280
  S      -1.212371      7.535685      6.775313
  C      -1.756563      7.913415      8.486713
  H      -2.387418      7.116252      8.883880
  H      -2.323266      8.845770      8.521603
  H      -0.887685      8.017349      9.137547
  S      -7.327683      7.179960      4.033276
  C      -7.035598      8.635498      2.953646
  H      -7.918040      8.827950      2.342258
  H      -6.187555      8.466087      2.287205
  H      -6.828320      9.528685      3.546611
  Cu     -3.172996      7.346200      5.835006
12
Coordinates from ORCA-job 1_Cu2C2H6S2 E -4154.597244218077
  Cu     -5.364822      7.153837      4.988712
  S      -1.215058      7.535952      6.774758
  C      -1.754555      7.913286      8.487654
  H      -2.384998      7.116441      8.886049
  H      -2.320387      8.846061      8.524471
  H      -0.883973      8.016217      9.136330
  S      -7.328880      7.179261      4.030723
  C      -7.035931      8.635544      2.952475
  H      -7.916572      8.826310      2.337990
  H      -6.185188      8.467964      2.289018
  H      -6.832589      9.529047      3.546301
  Cu     -3.176786      7.347214      5.836857
