12
Coordinates from ORCA-job 1_Cu2C2H6S2 E -4154.597244218077
  Cu         -5.36482222357972      7.15383677017298      4.98871152604439
  S          -1.21505815315229      7.53595210025426      6.77475806865135
  C          -1.75455511068529      7.91328555870985      8.48765391896993
  H          -2.38499844821353      7.11644085532119      8.88604894136927
  H          -2.32038733014642      8.84606112313225      8.52447061987799
  H          -0.88397284710496      8.01621699579338      9.13632957558696
  S          -7.32888003008468      7.17926053623643      4.03072308305269
  C          -7.03593123180093      8.63554357546093      2.95247469184601
  H          -7.91657203873378      8.82630953911227      2.33798960803186
  H          -6.18518792592803      8.46796368770920      2.28901844894562
  H          -6.83258899081631      9.52904662216329      3.54630131425418
  Cu         -3.17678566975402      7.34721363593389      5.83685720336969
