13
Coordinates from ORCA-job 2_Cu3C2H6S2 E -5794.136041190857
  Cu     -6.396354      6.676873      4.512935
  Cu     -3.994341      7.335361      3.648627
  S      -8.721449      6.151776      5.200069
  C      -9.497061      7.809129      5.140892
  H     -10.396324      7.816602      5.757643
  H      -9.777146      8.037637      4.111546
  H      -8.825046      8.587742      5.497833
  Cu     -7.729557      6.086018      7.401453
  S      -6.849247      5.978710      9.602281
  H      -5.037395      7.504993      8.961873
  H      -4.587674      5.824257      8.663027
  C      -5.110659      6.488828      9.351936
  H      -4.592701      6.456279     10.313337
13
Coordinates from ORCA-job 2_Cu3C2H6S2 E -5794.142271529617
  Cu     -6.406893      6.645038      4.542105
  Cu     -4.022463      7.328088      3.706648
  S      -8.703046      6.139597      5.216437
  C      -9.450961      7.807187      5.178315
  H     -10.350579      7.819983      5.792735
  H      -9.721571      8.052811      4.152147
  H      -8.760626      8.565358      5.549851
  Cu     -7.737583      6.044703      7.391905
  S      -6.869060      5.954814      9.562435
  H      -5.109284      7.529872      8.908303
  H      -4.614534      5.859748      8.606113
  C      -5.146991      6.511969      9.300741
  H      -4.621363      6.495037     10.255718
13
Coordinates from ORCA-job 2_Cu3C2H6S2 E -5794.155483919491
  Cu     -6.416642      6.635186      4.619500
  Cu     -4.067212      7.320505      3.851625
  S      -8.636416      6.122842      5.272805
  C      -9.378303      7.791996      5.235745
  H     -10.283927      7.803144      5.840666
  H      -9.633505      8.042482      4.207311
  H      -8.681485      8.537608      5.621717
  Cu     -7.760287      6.035124      7.402501
  S      -6.915635      5.960485      9.494262
  H      -5.194615      7.551350      8.792835
  H      -4.684384      5.882948      8.491963
  C      -5.204496      6.536425      9.195050
  H      -4.658048      6.534109     10.137473
13
Coordinates from ORCA-job 2_Cu3C2H6S2 E -5794.162717462315
  Cu     -6.419542      6.626582      4.666849
  Cu     -4.101434      7.314547      3.947643
  S      -8.589987      6.112469      5.311096
  C      -9.332062      7.783738      5.271848
  H     -10.242656      7.792867      5.869649
  H      -9.578038      8.036493      4.241418
  H      -8.636136      8.525652      5.666176
  Cu     -7.774777      6.024604      7.410563
  S      -6.945476      5.963503      9.448369
  H      -5.245848      7.564339      8.718477
  H      -4.725297      5.897759      8.421131
  C      -5.240603      6.551965      9.127037
  H      -4.683099      6.559687     10.063197
13
Coordinates from ORCA-job 2_Cu3C2H6S2 E -5794.169809487549
  Cu     -6.424597      6.612683      4.740578
  Cu     -4.161453      7.303882      4.096482
  S      -8.522993      6.100746      5.366270
  C      -9.269679      7.774101      5.318296
  H     -10.188843      7.778911      5.903392
  H      -9.500764      8.027382      4.284151
  H      -8.579552      8.515198      5.724458
  Cu     -7.793351      6.008271      7.419485
  S      -6.983276      5.966648      9.381340
  H      -5.311178      7.581506      8.614578
  H      -4.776093      5.917901      8.322859
  C      -5.286813      6.572812      9.031603
  H      -4.716361      6.594164      9.959961
13
Coordinates from ORCA-job 2_Cu3C2H6S2 E -5794.171687962820
  Cu     -6.437778      6.556209      4.802502
  Cu     -4.249485      7.323758      4.224696
  S      -8.487106      6.085969      5.397619
  C      -9.209986      7.773954      5.356071
  H     -10.135601      7.785492      5.931298
  H      -9.425099      8.039407      4.321221
  H      -8.513282      8.500672      5.777322
  Cu     -7.802215      5.952830      7.407212
  S      -7.010299      5.967252      9.326093
  H      -5.366361      7.592746      8.515230
  H      -4.803568      5.931844      8.262735
  C      -5.322837      6.595329      8.957442
  H      -4.751338      6.648742      9.884011
13
Coordinates from ORCA-job 2_Cu3C2H6S2 E -5794.171949817734
  Cu     -6.447134      6.696406      4.886654
  Cu     -4.229882      7.295095      4.296200
  S      -8.462121      6.133524      5.452747
  C      -9.303210      7.755089      5.261750
  H     -10.242782      7.741364      5.813317
  H      -9.506628      7.922554      4.204847
  H      -8.672373      8.562144      5.640476
  Cu     -7.802591      6.201779      7.467805
  S      -6.958406      5.992155      9.360420
  H      -5.221192      7.563089      8.639937
  H      -4.784787      5.894388      8.234444
  C      -5.238929      6.531050      8.997116
  H      -4.644921      6.465568      9.907739
13
Coordinates from ORCA-job 2_Cu3C2H6S2 E -5794.174254953504
  Cu     -6.473524      6.636192      4.925965
  Cu     -4.290205      7.290379      4.376213
  S      -8.511720      6.133506      5.393943
  C      -9.314971      7.779604      5.246312
  H     -10.259234      7.767866      5.790283
  H      -9.505178      7.983503      4.193194
  H      -8.672284      8.562414      5.654829
  Cu     -7.782027      6.095177      7.403268
  S      -6.925832      5.984548      9.359405
  H      -5.204923      7.562136      8.608601
  H      -4.730032      5.889578      8.275737
  C      -5.211081      6.544630      9.005918
  H      -4.633943      6.524672      9.929785
13
Coordinates from ORCA-job 2_Cu3C2H6S2 E -5794.174726832254
  Cu     -6.480053      6.609095      4.964808
  Cu     -4.288199      7.154362      4.461282
  S      -8.529905      6.143623      5.352489
  C      -9.312451      7.803154      5.263615
  H     -10.257452      7.782466      5.806276
  H      -9.498728      8.045086      4.217780
  H      -8.661966      8.563501      5.699603
  Cu     -7.756777      6.006915      7.341209
  S      -6.888342      5.890391      9.311141
  H      -5.285830      7.608780      8.614455
  H      -4.689653      5.985846      8.237444
  C      -5.219444      6.582746      8.983284
  H      -4.646155      6.578239      9.910066
13
Coordinates from ORCA-job 2_Cu3C2H6S2 E -5794.174579450949
  Cu     -6.484809      6.504198      5.010203
  Cu     -4.346923      7.216584      4.560100
  S      -8.569842      6.131797      5.354413
  C      -9.299110      7.813008      5.258326
  H     -10.243109      7.825913      5.803036
  H      -9.480652      8.052268      4.210907
  H      -8.624485      8.555314      5.686593
  Cu     -7.753974      5.979142      7.330791
  S      -6.869790      5.872271      9.303518
  H      -5.303772      7.618352      8.601549
  H      -4.688542      6.007679      8.203094
  C      -5.217689      6.590341      8.960524
  H      -4.632259      6.587337      9.880396
13
Coordinates from ORCA-job 2_Cu3C2H6S2 E -5794.174912618365
  Cu     -6.454782      6.554106      5.050015
  Cu     -4.246669      7.026525      4.662087
  S      -8.570154      6.151991      5.314909
  C      -9.321724      7.822317      5.281558
  H     -10.265277      7.803491      5.826435
  H      -9.508242      8.095029      4.243352
  H      -8.656455      8.558174      5.734644
  Cu     -7.724522      5.943541      7.282032
  S      -6.848499      5.825232      9.255061
  H      -5.363143      7.656250      8.604359
  H      -4.686026      6.086722      8.143630
  C      -5.231969      6.620309      8.925455
  H      -4.637491      6.610518      9.839915
13
Coordinates from ORCA-job 2_Cu3C2H6S2 E -5794.175130189946
  Cu     -6.439838      6.545248      5.062735
  Cu     -4.211557      6.979583      4.716431
  S      -8.575088      6.146857      5.316152
  C      -9.316768      7.821154      5.292649
  H     -10.252272      7.810124      5.851283
  H      -9.517511      8.094976      4.257619
  H      -8.639370      8.553151      5.735171
  Cu     -7.726426      5.949400      7.282543
  S      -6.843837      5.795554      9.229366
  H      -5.403666      7.681482      8.630955
  H      -4.709675      6.146739      8.084561
  C      -5.247517      6.634228      8.902243
  H      -4.631429      6.595707      9.801743
13
Coordinates from ORCA-job 2_Cu3C2H6S2 E -5794.175082474857
  Cu     -6.434964      6.522413      5.082520
  Cu     -4.197609      6.961718      4.796807
  S      -8.583876      6.137155      5.314731
  C      -9.309609      7.819058      5.298217
  H     -10.233728      7.820749      5.875721
  H      -9.528592      8.091982      4.266784
  H      -8.615860      8.545888      5.724330
  Cu     -7.732311      5.949042      7.278971
  S      -6.842523      5.784321      9.206076
  H      -5.424025      7.704085      8.657325
  H      -4.738023      6.199774      8.024632
  C      -5.256662      6.646374      8.878237
  H      -4.617173      6.571646      9.759102
13
Coordinates from ORCA-job 2_Cu3C2H6S2 E -5794.175126271873
  Cu     -6.441014      6.495853      5.066009
  Cu     -4.193941      6.926537      4.794579
  S      -8.593911      6.129622      5.307492
  C      -9.298226      7.821717      5.304208
  H     -10.208760      7.836371      5.902895
  H      -9.536918      8.097617      4.277979
  H      -8.585577      8.539660      5.714085
  Cu     -7.732863      5.935705      7.268553
  S      -6.828188      5.746825      9.184481
  H      -5.463146      7.726553      8.714725
  H      -4.750839      6.273602      7.998401
  C      -5.267289      6.663605      8.881005
  H      -4.614282      6.560539      9.749041
13
Coordinates from ORCA-job 2_Cu3C2H6S2 E -5794.175083242981
  Cu     -6.454533      6.452055      5.050805
  Cu     -4.192812      6.877542      4.836539
  S      -8.610038      6.115140      5.288426
  C      -9.279967      7.822894      5.311695
  H     -10.163909      7.856215      5.948561
  H      -9.555207      8.105570      4.296503
  H      -8.536322      8.525565      5.692057
  Cu     -7.735373      5.908244      7.244041
  S      -6.811895      5.715100      9.150071
  H      -5.504983      7.761068      8.815173
  H      -4.793477      6.396994      7.942851
  C      -5.281370      6.692536      8.877654
  H      -4.595068      6.525281      9.709077
13
Coordinates from ORCA-job 2_Cu3C2H6S2 E -5794.175049980445
  Cu     -6.461184      6.448097      5.048952
  Cu     -4.194322      6.879081      4.867169
  S      -8.611453      6.109877      5.282739
  C      -9.279950      7.818893      5.305862
  H     -10.157080      7.855348      5.951959
  H      -9.565419      8.097714      4.292367
  H      -8.531719      8.522226      5.675728
  Cu     -7.740004      5.910095      7.241492
  S      -6.817178      5.734840      9.152681
  H      -5.484469      7.769403      8.861875
  H      -4.820266      6.427497      7.919693
  C      -5.277657      6.695963      8.878110
  H      -4.574254      6.485173      9.684825
13
Coordinates from ORCA-job 2_Cu3C2H6S2 E -5794.175040069178
  Cu     -6.464791      6.446574      5.039584
  Cu     -4.188542      6.829951      4.870980
  S      -8.611016      6.111881      5.275979
  C      -9.279785      7.820404      5.306101
  H     -10.155094      7.854805      5.954662
  H      -9.568363      8.100677      4.293884
  H      -8.530422      8.522930      5.675061
  Cu     -7.732319      5.904820      7.232106
  S      -6.804237      5.720075      9.143795
  H      -5.498190      7.778604      8.924611
  H      -4.843624      6.490335      7.901957
  C      -5.280983      6.707992      8.882562
  H      -4.557587      6.465158      9.662168
13
Coordinates from ORCA-job 2_Cu3C2H6S2 E -5794.175008632244
  Cu     -6.463816      6.455373      5.042031
  Cu     -4.186971      6.839338      4.897535
  S      -8.606379      6.114427      5.278331
  C      -9.286575      7.817853      5.300848
  H     -10.168474      7.847072      5.940575
  H      -9.567526      8.093594      4.285246
  H      -8.545279      8.525869      5.675346
  Cu     -7.731636      5.913572      7.237616
  S      -6.812327      5.743443      9.156149
  H      -5.471713      7.777043      8.928803
  H      -4.853515      6.479110      7.892895
  C      -5.274870      6.702910      8.879259
  H      -4.545873      6.444601      9.648819
13
Coordinates from ORCA-job 2_Cu3C2H6S2 E -5794.174943823509
  Cu     -6.462332      6.445619      5.032751
  Cu     -4.179792      6.802990      4.926475
  S      -8.605809      6.116548      5.275930
  C      -9.284799      7.819617      5.304994
  H     -10.168388      7.846776      5.942442
  H      -9.563571      8.098752      4.289768
  H      -8.543729      8.525642      5.683569
  Cu     -7.723373      5.906306      7.232430
  S      -6.804873      5.732477      9.149751
  H      -5.485045      7.783319      8.966813
  H      -4.880614      6.527431      7.869893
  C      -5.281215      6.713435      8.873046
  H      -4.531414      6.435293      9.615590
13
Coordinates from ORCA-job 2_Cu3C2H6S2 E -5794.174850259431
  Cu     -6.459898      6.441790      5.027779
  Cu     -4.173962      6.777190      4.965554
  S      -8.605292      6.120166      5.273888
  C      -9.287846      7.821531      5.306484
  H     -10.172675      7.845024      5.942435
  H      -9.565657      8.103193      4.291747
  H      -8.549089      8.528170      5.688524
  Cu     -7.716500      5.906577      7.228539
  S      -6.798355      5.723314      9.142909
  H      -5.491467      7.785283      8.977606
  H      -4.890273      6.548942      7.855845
  C      -5.282190      6.717997      8.865982
  H      -4.521750      6.435028      9.596160
13
Coordinates from ORCA-job 2_Cu3C2H6S2 E -5794.174785537856
  Cu     -6.458042      6.444104      5.021552
  Cu     -4.168643      6.756014      5.003429
  S      -8.604295      6.124360      5.268858
  C      -9.293432      7.823093      5.306614
  H     -10.176696      7.841218      5.945014
  H      -9.574892      8.107248      4.293629
  H      -8.556942      8.531715      5.689397
  Cu     -7.710985      5.909405      7.222897
  S      -6.793244      5.718271      9.135859
  H      -5.493010      7.786173      8.974631
  H      -4.887704      6.554540      7.850013
  C      -5.279759      6.719668      8.861296
  H      -4.517309      6.438396      9.590264
13
Coordinates from ORCA-job 2_Cu3C2H6S2 E -5794.174775151466
  Cu     -6.458794      6.445679      5.014844
  Cu     -4.168585      6.753235      5.016321
  S      -8.604944      6.126294      5.264442
  C      -9.296417      7.824196      5.307000
  H     -10.176158      7.839867      5.950361
  H      -9.583487      8.110269      4.296148
  H      -8.559333      8.533409      5.687588
  Cu     -7.709148      5.910468      7.218008
  S      -6.791021      5.716166      9.131119
  H      -5.494373      7.785978      8.956807
  H      -4.872966      6.541663      7.856563
  C      -5.276926      6.718488      8.861266
  H      -4.522801      6.448495      9.602985
13
Coordinates from ORCA-job 2_Cu3C2H6S2 E -5794.174750905279
  Cu     -6.459573      6.449616      5.011459
  Cu     -4.168396      6.749673      5.032099
  S      -8.605162      6.127689      5.259005
  C      -9.299868      7.824183      5.306253
  H     -10.175448      7.837447      5.955315
  H      -9.593738      8.110720      4.297506
  H      -8.562019      8.534643      5.683010
  Cu     -7.707857      5.912853      7.212538
  S      -6.790349      5.719271      9.126957
  H      -5.489834      7.786001      8.948071
  H      -4.863694      6.534598      7.859989
  C      -5.273432      6.717529      8.861236
  H      -4.525585      6.449983      9.610013
13
Coordinates from ORCA-job 2_Cu3C2H6S2 E -5794.174776589128
  Cu     -6.460067      6.450054      5.010166
  Cu     -4.169183      6.753946      5.025468
  S      -8.605338      6.127160      5.258526
  C      -9.299369      7.823823      5.306612
  H     -10.174049      7.837566      5.956851
  H      -9.594545      8.110061      4.298152
  H      -8.560635      8.534067      5.682026
  Cu     -7.708403      5.912656      7.211995
  S      -6.791907      5.721579      9.127380
  H      -5.488677      7.785873      8.944780
  H      -4.860560      6.529729      7.863597
  C      -5.273402      6.716821      8.862699
  H      -4.528820      6.450869      9.615200
