13
Coordinates from ORCA-job 2_Cu3C2H6S2 E -5794.174776589128
  Cu         -6.46006665889656      6.45005410783575      5.01016631169014
  Cu         -4.16918252072024      6.75394556729475      5.02546839683239
  S          -8.60533835475594      6.12716037161454      5.25852615939165
  C          -9.29936944543957      7.82382276379707      5.30661152878314
  H         -10.17404873228901      7.83756630911572      5.95685124241667
  H          -9.59454485632807      8.11006144762596      4.29815162023315
  H          -8.56063524481891      8.53406722770522      5.68202638226811
  Cu         -7.70840291066192      5.91265553984532      7.21199509295387
  S          -6.79190665039504      5.72157941974699      9.12737996960725
  H          -5.48867712507349      7.78587344574636      8.94477980401020
  H          -4.86056030749150      6.52972895591619      7.86359681949447
  C          -5.27340153715881      6.71682069156584      8.86269879202176
  H          -4.52881965597083      6.45086915219019      9.61519988029709
