19
Coordinates from ORCA-job 3_Cu4C3H9S3 E -7871.438862324840
  Cu         -4.89451055255965      6.54995306300188      3.34671276308631
  S          -2.20686922369421      7.37006202599115      6.67486375324577
  C          -3.40351268210127      8.37359498606201      7.63719868899777
  H          -3.65146324883476      7.84792378105353      8.55881032076878
  H          -4.32028805727889      8.53552337902953      7.05921373596977
  H          -2.96073972622807      9.34099090130343      7.88089215366110
  S          -5.69877608736780      7.83958615021960      1.73983224157103
  C          -6.94736324493002      8.72538732068156      2.74930089204918
  H          -7.01380419926106      9.76529152742070      2.42485674040794
  H          -6.67238184931073      8.69796933170802      3.81011893382540
  H          -7.91630671470586      8.24388468887824      2.62077595210357
  Cu         -3.59712064025639      6.39928157900995      5.25886756781111
  Cu         -3.81712402155588      8.67612545062486      2.54222444071258
  Cu         -2.23269966662804      8.45069200602554      4.74504072248745
  S          -1.88547977379826      9.59437602144471      2.92978387010011
  C          -0.79329249684820      8.42948511339246      2.02553318148999
  H          -0.82117885714822      8.67042914023098      0.96232443571665
  H           0.22552540645210      8.53803270896098      2.39897782157063
  H          -1.12517036394469      7.39731582496065      2.17245978442476
