19
Coordinates from ORCA-job 3_Cu4C3H9S3 E -7871.371393927801
  Cu     -5.369518      6.359996      3.526155
  S      -1.958741      7.227077      7.105868
  C      -3.000945      8.308921      8.150339
  H      -3.214488      7.799260      9.091237
  H      -3.950293      8.544901      7.666968
  H      -2.481244      9.241988      8.372517
  S      -6.064083      7.674610      1.415829
  C      -7.299863      8.781180      2.187640
  H      -7.267290      9.770219      1.728429
  H      -7.131797      8.889190      3.260403
  H      -8.296845      8.363376      2.038811
  Cu     -3.827195      6.204423      5.647182
  Cu     -3.964879      8.568793      2.360890
  Cu     -2.096088      8.379986      4.930833
  S      -1.826427      9.669233      2.861002
  C      -0.677467      8.577732      1.942969
  H      -0.704199      8.833477      0.883132
  H       0.337348      8.725599      2.313987
  H      -0.938542      7.525944      2.053597
19
Coordinates from ORCA-job 3_Cu4C3H9S3 E -7871.381748296964
  Cu     -5.346406      6.366245      3.521243
  S      -1.977248      7.235729      7.058675
  C      -3.032687      8.314487      8.090505
  H      -3.249654      7.809360      9.031428
  H      -3.979304      8.538550      7.591479
  H      -2.520740      9.252720      8.307196
  S      -6.024706      7.677494      1.449773
  C      -7.253638      8.778405      2.236774
  H      -7.219137      9.770727      1.785687
  H      -7.070955      8.874447      3.310428
  H      -8.251012      8.363736      2.091949
  Cu     -3.813791      6.210795      5.627661
  Cu     -3.955026      8.570739      2.373938
  Cu     -2.105093      8.383260      4.917860
  S      -1.849283      9.659598      2.877119
  C      -0.700347      8.571824      1.959326
  H      -0.728914      8.828560      0.900125
  H       0.313267      8.720104      2.332495
  H      -0.967882      7.519124      2.074126
19
Coordinates from ORCA-job 3_Cu4C3H9S3 E -7871.398028188902
  Cu     -5.307324      6.378338      3.516405
  S      -2.004780      7.248873      6.981734
  C      -3.077968      8.323396      7.999938
  H      -3.299971      7.822056      8.941157
  H      -4.019374      8.532916      7.483355
  H      -2.575856      9.268159      8.211042
  S      -5.959987      7.681577      1.501927
  C      -7.182787      8.774266      2.309506
  H      -7.148096      9.770764      1.867864
  H      -6.984093      8.855504      3.382270
  H      -8.181161      8.362099      2.167914
  Cu     -3.795876      6.223872      5.594165
  Cu     -3.941619      8.573477      2.391248
  Cu     -2.117210      8.387342      4.900271
  S      -1.891670      9.641346      2.907244
  C      -0.738494      8.560859      1.987156
  H      -0.768740      8.821721      0.929196
  H       0.273568      8.710571      2.363434
  H      -1.011118      7.508769      2.101964
19
Coordinates from ORCA-job 3_Cu4C3H9S3 E -7871.408129090318
  Cu     -5.278026      6.387262      3.514558
  S      -2.022713      7.258661      6.930537
  C      -3.107042      8.329289      7.942863
  H      -3.331223      7.828281      8.883706
  H      -4.045898      8.531421      7.418403
  H      -2.610859      9.277576      8.152439
  S      -5.916852      7.684893      1.535989
  C      -7.137977      8.771686      2.355970
  H      -7.104960      9.770528      1.919344
  H      -6.931965      8.845631      3.427972
  H      -8.136505      8.359464      2.215587
  Cu     -3.784325      6.233585      5.568547
  Cu     -3.933259      8.575927      2.400699
  Cu     -2.123876      8.390511      4.889543
  S      -1.920648      9.628109      2.927658
  C      -0.763259      8.552421      2.005211
  H      -0.794229      8.816909      0.948111
  H       0.247909      8.703461      2.383366
  H      -1.036850      7.500290      2.117284
19
Coordinates from ORCA-job 3_Cu4C3H9S3 E -7871.421304433940
  Cu     -5.232328      6.402885      3.513484
  S      -2.051253      7.273250      6.854764
  C      -3.150682      8.337839      7.860188
  H      -3.377610      7.835620      8.799710
  H      -4.086428      8.531845      7.326621
  H      -2.661783      9.290034      8.069674
  S      -5.853397      7.690218      1.587939
  C      -7.074039      8.767609      2.424547
  H      -7.045144      9.769414      1.994196
  H      -6.859430      8.833232      3.495578
  H      -8.071936      8.353110      2.285964
  Cu     -3.768347      6.250229      5.528003
  Cu     -3.920321      8.579704      2.414129
  Cu     -2.133301      8.394946      4.873522
  S      -1.962096      9.607002      2.956968
  C      -0.797422      8.539419      2.030143
  H      -0.829240      8.810212      0.974505
  H       0.212236      8.693002      2.411407
  H      -1.070033      7.486335      2.136443
19
Coordinates from ORCA-job 3_Cu4C3H9S3 E -7871.434649994792
  Cu     -5.163192      6.430325      3.514061
  S      -2.099641      7.292898      6.744162
  C      -3.218647      8.350153      7.740070
  H      -3.450898      7.844678      8.676531
  H      -4.149575      8.536840      7.194436
  H      -2.737038      9.305580      7.952667
  S      -5.762518      7.697056      1.669727
  C      -6.983771      8.761116      2.528005
  H      -6.962822      9.766182      2.104370
  H      -6.757209      8.818310      3.597567
  H      -7.979741      8.340427      2.394184
  Cu     -3.746589      6.279109      5.466208
  Cu     -3.899635      8.583634      2.435096
  Cu     -2.148080      8.399414      4.848124
  S      -2.018044      9.572396      2.996386
  C      -0.840428      8.520682      2.061446
  H      -0.873622      8.802365      1.008460
  H       0.166361      8.679906      2.448257
  H      -1.107468      7.464833      2.158033
19
Coordinates from ORCA-job 3_Cu4C3H9S3 E -7871.438155105678
  Cu     -5.104942      6.456015      3.510116
  S      -2.151403      7.306372      6.663852
  C      -3.286148      8.360444      7.649402
  H      -3.530876      7.848836      8.579369
  H      -4.209125      8.550187      7.090336
  H      -2.804965      9.313461      7.874015
  S      -5.702869      7.701990      1.741191
  C      -6.920884      8.755415      2.621580
  H      -6.913633      9.761138      2.198755
  H      -6.675887      8.812097      3.687718
  H      -7.914275      8.324067      2.503856
  Cu     -3.728623      6.306909      5.413340
  Cu     -3.878915      8.584478      2.450036
  Cu     -2.160210      8.400455      4.821454
  S      -2.045248      9.541502      3.012954
  C      -0.854132      8.506152      2.071823
  H      -0.888812      8.795624      1.020874
  H       0.149404      8.673949      2.463963
  H      -1.111014      7.446812      2.163155
19
Coordinates from ORCA-job 3_Cu4C3H9S3 E -7871.438751735202
  Cu     -5.083883      6.451924      3.488952
  S      -2.168465      7.313405      6.672094
  C      -3.318802      8.365100      7.642548
  H      -3.580006      7.849065      8.565584
  H      -4.232016      8.559681      7.069291
  H      -2.839090      9.315342      7.881628
  S      -5.715770      7.712378      1.748707
  C      -6.923699      8.754993      2.656071
  H      -6.931301      9.762281      2.237045
  H      -6.658325      8.809821      3.717559
  H      -7.915965      8.316375      2.557722
  Cu     -3.714086      6.305956      5.397765
  Cu     -3.868984      8.588424      2.444677
  Cu     -2.156862      8.403427      4.812105
  S      -2.018761      9.540491      2.992680
  C      -0.829713      8.500572      2.054213
  H      -0.865113      8.785468      1.002136
  H       0.174070      8.669635      2.445162
  H      -1.085787      7.441567      2.151849
19
Coordinates from ORCA-job 3_Cu4C3H9S3 E -7871.439802633730
  Cu     -5.037965      6.468864      3.453681
  S      -2.231131      7.317445      6.678939
  C      -3.393667      8.372971      7.631962
  H      -3.685364      7.846199      8.540168
  H      -4.289301      8.590374      7.039908
  H      -2.903635      9.309896      7.901473
  S      -5.740268      7.724695      1.785788
  C      -6.933361      8.749507      2.733420
  H      -6.971050      9.756080      2.314303
  H      -6.632411      8.810122      3.785571
  H      -7.920119      8.291348      2.673822
  Cu     -3.693668      6.327355      5.358644
  Cu     -3.840584      8.589649      2.441655
  Cu     -2.160285      8.401928      4.780879
  S      -1.955208      9.529390      2.943575
  C      -0.765308      8.490763      2.007241
  H      -0.803310      8.771322      0.954540
  H       0.237121      8.666703      2.398311
  H      -1.013042      7.431293      2.113908
19
Coordinates from ORCA-job 3_Cu4C3H9S3 E -7871.439826546392
  Cu     -5.027732      6.482432      3.445146
  S      -2.254131      7.308967      6.682034
  C      -3.397401      8.372877      7.647272
  H      -3.691189      7.843515      8.553335
  H      -4.293036      8.606493      7.061912
  H      -2.892519      9.300771      7.920514
  S      -5.749260      7.722687      1.791753
  C      -6.945760      8.745687      2.735466
  H      -6.989009      9.749521      2.310448
  H      -6.644557      8.813579      3.787043
  H      -7.929973      8.281632      2.679304
  Cu     -3.701253      6.345193      5.349409
  Cu     -3.834198      8.586156      2.446687
  Cu     -2.173237      8.396904      4.770387
  S      -1.937994      9.526703      2.930326
  C      -0.747392      8.490732      1.995346
  H      -0.786068      8.771782      0.942935
  H       0.254374      8.669321      2.386817
  H      -0.992223      7.430955      2.101655
19
Coordinates from ORCA-job 3_Cu4C3H9S3 E -7871.439763658665
  Cu     -5.030995      6.498518      3.444937
  S      -2.262709      7.291456      6.686689
  C      -3.363433      8.368355      7.683872
  H      -3.646771      7.838608      8.592859
  H      -4.267205      8.622462      7.120412
  H      -2.835623      9.285347      7.950232
  S      -5.755538      7.713833      1.779553
  C      -6.966623      8.741573      2.696525
  H      -7.006621      9.740746      2.260360
  H      -6.681540      8.820737      3.751573
  H      -7.948963      8.275127      2.629215
  Cu     -3.723304      6.366821      5.350130
  Cu     -3.838477      8.581143      2.457852
  Cu     -2.197347      8.391243      4.767957
  S      -1.938373      9.529358      2.930134
  C      -0.747082      8.494786      1.998108
  H      -0.785152      8.776432      0.945755
  H       0.254322      8.674669      2.389866
  H      -0.991121      7.434690      2.101760
19
Coordinates from ORCA-job 3_Cu4C3H9S3 E -7871.439666300795
  Cu     -5.041216      6.522528      3.451994
  S      -2.258827      7.267895      6.691907
  C      -3.297547      8.359139      7.736083
  H      -3.561158      7.829382      8.650612
  H      -4.214148      8.638281      7.206648
  H      -2.741203      9.263050      7.988188
  S      -5.756847      7.701620      1.752021
  C      -6.993525      8.736220      2.622877
  H      -7.025004      9.729142      2.171986
  H      -6.738214      8.830417      3.683895
  H      -7.972995      8.267868      2.532655
  Cu     -3.751863      6.395574      5.354858
  Cu     -3.852830      8.579216      2.479424
  Cu     -2.233152      8.389587      4.773537
  S      -1.954466      9.537782      2.942134
  C      -0.764520      8.499808      2.015029
  H      -0.801006      8.780143      0.961946
  H       0.237481      8.678418      2.405958
  H      -1.011515      7.439834      2.116037
19
Coordinates from ORCA-job 3_Cu4C3H9S3 E -7871.439640118328
  Cu     -5.038950      6.534664      3.449981
  S      -2.245942      7.261217      6.692124
  C      -3.258420      8.355132      7.758025
  H      -3.507420      7.826576      8.677120
  H      -4.183372      8.639079      7.246061
  H      -2.694432      9.257188      7.999221
  S      -5.749758      7.702827      1.728450
  C      -7.002301      8.732772      2.581575
  H      -7.028372      9.727001      2.133129
  H      -6.764744      8.824787      3.646673
  H      -7.979917      8.264735      2.472919
  Cu     -3.758458      6.408943      5.352294
  Cu     -3.864223      8.585962      2.495986
  Cu     -2.253836      8.394325      4.780075
  S      -1.970587      9.546918      2.955731
  C      -0.786602      8.498206      2.032721
  H      -0.818998      8.776580      0.978688
  H       0.216740      8.669087      2.423901
  H      -1.042964      7.439906      2.133115
19
Coordinates from ORCA-job 3_Cu4C3H9S3 E -7871.439618477531
  Cu     -5.018544      6.536187      3.430499
  S      -2.231122      7.271166      6.687713
  C      -3.253037      8.358117      7.752165
  H      -3.493473      7.831899      8.674897
  H      -4.182674      8.628657      7.241212
  H      -2.699765      9.268381      7.987494
  S      -5.738297      7.720958      1.709844
  C      -6.996446      8.730792      2.580184
  H      -7.023605      9.734453      2.153166
  H      -6.761211      8.801490      3.647503
  H      -7.973169      8.263763      2.459943
  Cu     -3.742272      6.408719      5.336242
  Cu     -3.867916      8.598946      2.505886
  Cu     -2.262175      8.401889      4.781055
  S      -1.977768      9.556225      2.964337
  C      -0.804724      8.489116      2.046142
  H      -0.831450      8.763091      0.990653
  H       0.200365      8.647763      2.438276
  H      -1.075271      7.434292      2.150576
19
Coordinates from ORCA-job 3_Cu4C3H9S3 E -7871.439498580980
  Cu     -4.987280      6.534610      3.400998
  S      -2.223614      7.291575      6.681912
  C      -3.277861      8.364919      7.729436
  H      -3.516748      7.840139      8.653559
  H      -4.207812      8.613539      7.207744
  H      -2.745096      9.287387      7.965045
  S      -5.729564      7.748348      1.702230
  C      -6.983765      8.729339      2.611991
  H      -7.017230      9.745242      2.215260
  H      -6.738179      8.769925      3.678885
  H      -7.960343      8.262661      2.488681
  Cu     -3.711320      6.403341      5.311307
  Cu     -3.862608      8.613563      2.509425
  Cu     -2.261731      8.411050      4.774411
  S      -1.969832      9.564068      2.961527
  C      -0.809917      8.475658      2.049269
  H      -0.831826      8.742804      0.991982
  H       0.196814      8.622475      2.442030
  H      -1.094645      7.425261      2.162094
19
Coordinates from ORCA-job 3_Cu4C3H9S3 E -7871.439365374921
  Cu     -4.967081      6.536791      3.380657
  S      -2.221166      7.307544      6.677712
  C      -3.301196      8.369018      7.711739
  H      -3.540691      7.843545      8.635512
  H      -4.230082      8.602547      7.181029
  H      -2.783467      9.299432      7.950148
  S      -5.725574      7.768112      1.700632
  C      -6.974981      8.727823      2.640032
  H      -7.014084      9.751505      2.264124
  H      -6.719680      8.747985      3.705579
  H      -7.951278      8.260131      2.517378
  Cu     -3.689280      6.402905      5.295215
  Cu     -3.856403      8.623184      2.510636
  Cu     -2.260720      8.418205      4.767066
  S      -1.958456      9.570079      2.954677
  C      -0.808219      8.465848      2.047632
  H      -0.828149      8.726266      0.988769
  H       0.199645      8.606066      2.440007
  H      -1.101694      7.418919      2.169243
19
Coordinates from ORCA-job 3_Cu4C3H9S3 E -7871.439189145733
  Cu     -4.951918      6.542993      3.364447
  S      -2.219722      7.324423      6.673794
  C      -3.327694      8.371469      7.693696
  H      -3.568168      7.843761      8.616108
  H      -4.254917      8.589535      7.153371
  H      -2.826102      9.309736      7.936239
  S      -5.722780      7.787077      1.703322
  C      -6.967308      8.725920      2.670345
  H      -7.012643      9.756021      2.312999
  H      -6.702628      8.727997      3.734101
  H      -7.942770      8.255926      2.549018
  Cu     -3.668935      6.406597      5.284114
  Cu     -3.847952      8.632033      2.511913
  Cu     -2.258216      8.425674      4.757887
  S      -1.941566      9.576930      2.943999
  C      -0.801843      8.456369      2.042560
  H      -0.821389      8.709052      0.981990
  H       0.207357      8.591267      2.433370
  H      -1.103363      7.413125      2.174515
19
Coordinates from ORCA-job 3_Cu4C3H9S3 E -7871.439041409176
  Cu     -4.937509      6.546705      3.352259
  S      -2.219841      7.338344      6.671635
  C      -3.352251      8.373513      7.677017
  H      -3.594779      7.845186      8.598470
  H      -4.276929      8.577436      7.126732
  H      -2.865631      9.319155      7.921463
  S      -5.719740      7.803100      1.709486
  C      -6.960143      8.724565      2.698300
  H      -7.010836      9.759341      2.355502
  H      -6.688634      8.712476      3.760312
  H      -7.934857      8.253189      2.576678
  Cu     -3.651077      6.408007      5.275284
  Cu     -3.839326      8.640225      2.514415
  Cu     -2.253879      8.431297      4.750670
  S      -1.925625      9.581885      2.935689
  C      -0.795825      8.448595      2.037399
  H      -0.816434      8.695939      0.975608
  H       0.215165      8.578763      2.425104
  H      -1.104405      7.408184      2.175767
19
Coordinates from ORCA-job 3_Cu4C3H9S3 E -7871.439014143967
  Cu     -4.931349      6.546750      3.349284
  S      -2.219884      7.342962      6.671756
  C      -3.361863      8.374148      7.670303
  H      -3.605434      7.846662      8.591924
  H      -4.285328      8.571677      7.115475
  H      -2.881779      9.323361      7.913942
  S      -5.717768      7.808943      1.714013
  C      -6.957447      8.724398      2.708996
  H      -7.010395      9.760431      2.370253
  H      -6.684484      8.708387      3.770549
  H      -7.931782      8.252502      2.586234
  Cu     -3.643935      6.406771      5.272512
  Cu     -3.835405      8.644132      2.516814
  Cu     -2.250682      8.433045      4.748809
  S      -1.918987      9.583332      2.933695
  C      -0.793714      8.445925      2.035214
  H      -0.815331      8.692314      0.973159
  H       0.218378      8.573683      2.420746
  H      -1.105368      7.406481      2.174109
19
Coordinates from ORCA-job 3_Cu4C3H9S3 E -7871.438956759892
  Cu     -4.915625      6.545738      3.346618
  S      -2.217890      7.354322      6.673350
  C      -3.385004      8.375210      7.653111
  H      -3.632546      7.850063      8.574923
  H      -4.304470      8.556424      7.085618
  H      -2.922203      9.333523      7.894890
  S      -5.711578      7.821842      1.728050
  C      -6.950992      8.724888      2.733701
  H      -7.009119      9.763078      2.402105
  H      -6.676102      8.702152      3.794534
  H      -7.924317      8.251689      2.607587
  Cu     -3.622853      6.400948      5.266107
  Cu     -3.825648      8.654216      2.525608
  Cu     -2.241333      8.437564      4.745677
  S      -1.903250      9.586553      2.930667
  C      -0.790152      8.439693      2.029892
  H      -0.814451      8.685078      0.967478
  H       0.224940      8.560301      2.409562
  H      -1.109963      7.402623      2.168309
19
Coordinates from ORCA-job 3_Cu4C3H9S3 E -7871.438933711937
  Cu     -4.908373      6.545789      3.345686
  S      -2.216108      7.357980      6.674225
  C      -3.391826      8.375309      7.647343
  H      -3.640034      7.851473      8.569772
  H      -4.310278      8.550108      7.075968
  H      -2.935310      9.337031      7.887791
  S      -5.707648      7.827699      1.732888
  C      -6.949384      8.724913      2.740513
  H      -7.010526      9.763684      2.411185
  H      -6.674580      8.700569      3.801323
  H      -7.921549      8.249642      2.612844
  Cu     -3.615756      6.399275      5.263751
  Cu     -3.822084      8.660435      2.531175
  Cu     -2.238044      8.439805      4.745265
  S      -1.897134      9.588347      2.931029
  C      -0.790311      8.437000      2.028433
  H      -0.815566      8.682212      0.965964
  H       0.226125      8.553448      2.405768
  H      -1.114170      7.401185      2.166863
19
Coordinates from ORCA-job 3_Cu4C3H9S3 E -7871.438894620871
  Cu     -4.898689      6.547143      3.345461
  S      -2.211561      7.363730      6.675414
  C      -3.399650      8.374937      7.640005
  H      -3.647919      7.852179      8.563133
  H      -4.317096      8.540646      7.064096
  H      -2.951905      9.341035      7.879725
  S      -5.701116      7.836290      1.738503
  C      -6.947855      8.724912      2.747228
  H      -7.013046      9.764522      2.421366
  H      -6.673803      8.698299      3.808228
  H      -7.917869      8.245781      2.617452
  Cu     -3.605508      6.397790      5.260875
  Cu     -3.817808      8.670948      2.540077
  Cu     -2.233704      8.444223      4.745155
  S      -1.888765      9.591763      2.932053
  C      -0.792011      8.432794      2.026673
  H      -0.818851      8.676881      0.964005
  H       0.226326      8.542904      2.400857
  H      -1.121725      7.399130      2.167484
19
Coordinates from ORCA-job 3_Cu4C3H9S3 E -7871.438878636277
  Cu     -4.897218      6.548440      3.346739
  S      -2.209129      7.365507      6.675592
  C      -3.400262      8.374355      7.639089
  H      -3.648074      7.851002      8.562043
  H      -4.317707      8.538310      7.062720
  H      -2.954314      9.341028      7.879875
  S      -5.699292      7.837883      1.739121
  C      -6.948134      8.725063      2.746687
  H      -7.014161      9.764657      2.421036
  H      -6.674401      8.698708      3.807816
  H      -7.917329      8.244281      2.617127
  Cu     -3.602633      6.398074      5.260540
  Cu     -3.817492      8.673914      2.542552
  Cu     -2.233139      8.446187      4.745406
  S      -1.887219      9.592982      2.932284
  C      -0.793126      8.431633      2.026290
  H      -0.820390      8.674985      0.963532
  H       0.225535      8.540275      2.400104
  H      -1.124070      7.398621      2.169233
19
Coordinates from ORCA-job 3_Cu4C3H9S3 E -7871.438835102482
  Cu     -4.890729      6.550706      3.345291
  S      -2.205903      7.371775      6.675253
  C      -3.406826      8.373969      7.633829
  H      -3.654806      7.849373      8.556072
  H      -4.323227      8.532387      7.054248
  H      -2.967080      9.342983      7.876688
  S      -5.696115      7.843832      1.741449
  C      -6.946511      8.725047      2.752594
  H      -7.014987      9.765551      2.430515
  H      -6.671369      8.695897      3.813349
  H      -7.914493      8.241838      2.623342
  Cu     -3.593469      6.398475      5.257048
  Cu     -3.815275      8.680425      2.545961
  Cu     -2.231238      8.451312      4.744526
  S      -1.881928      9.595728      2.930624
  C      -0.793881      8.427889      2.025049
  H      -0.822101      8.668638      0.961818
  H       0.225631      8.533502      2.397489
  H      -1.128247      7.396579      2.172643
19
Coordinates from ORCA-job 3_Cu4C3H9S3 E -7871.438840612041
  Cu     -4.893685      6.549808      3.346044
  S      -2.207052      7.369817      6.675113
  C      -3.404287      8.373966      7.636149
  H      -3.652303      7.849162      8.558245
  H      -4.321001      8.535019      7.057821
  H      -2.961966      9.341784      7.879046
  S      -5.697954      7.840870      1.740241
  C      -6.947101      8.725218      2.750236
  H      -7.014233      9.765313      2.426537
  H      -6.672097      8.697279      3.811041
  H      -7.915751      8.243205      2.621451
  Cu     -3.596824      6.398598      5.258449
  Cu     -3.816511      8.677169      2.543523
  Cu     -2.232190      8.449921      4.744869
  S      -1.884529      9.594566      2.930543
  C      -0.793415      8.429335      2.025464
  H      -0.821268      8.670701      0.962347
  H       0.225588      8.536860      2.398720
  H      -1.125976      7.397311      2.171949
19
Coordinates from ORCA-job 3_Cu4C3H9S3 E -7871.438862324840
  Cu     -4.894511      6.549953      3.346713
  S      -2.206869      7.370062      6.674864
  C      -3.403513      8.373595      7.637199
  H      -3.651463      7.847924      8.558810
  H      -4.320288      8.535523      7.059214
  H      -2.960740      9.340991      7.880892
  S      -5.698776      7.839586      1.739832
  C      -6.947363      8.725387      2.749301
  H      -7.013804      9.765292      2.424857
  H      -6.672382      8.697969      3.810119
  H      -7.916307      8.243885      2.620776
  Cu     -3.597121      6.399282      5.258868
  Cu     -3.817124      8.676125      2.542224
  Cu     -2.232700      8.450692      4.745041
  S      -1.885480      9.594376      2.929784
  C      -0.793292      8.429485      2.025533
  H      -0.821179      8.670429      0.962324
  H       0.225525      8.538033      2.398978
  H      -1.125170      7.397316      2.172460
