25
Coordinates from ORCA-job 4_Cu5C4H12S4 E -9948.618890658152
  Cu     -6.044470      7.734952      3.792725
  Cu     -3.363717      8.531787      3.399517
  S      -7.758723      5.754024      3.916222
  C      -9.307371      6.637672      4.319634
  H      -9.118373      7.689279      4.536570
  H      -9.810277      6.176260      5.169767
  H      -9.972527      6.581260      3.456140
  Cu     -6.458555      5.629469      5.932972
  S      -4.688084      5.703646      7.601120
  H      -6.036831      6.728963      9.347102
  H      -5.561901      7.935676      8.140365
  C      -5.224392      7.064297      8.701509
  H      -4.384417      7.364836      9.329265
  Cu     -3.951106      7.074220      5.569646
  Cu     -5.360806      9.848049      1.730503
  S      -7.528742      9.624701      2.742135
  C      -8.573289      8.667143      1.587193
  H      -9.598791      8.675385      1.960712
  H      -8.567567      9.114374      0.592963
  H      -8.242682      7.630341      1.520863
  S      -2.971911      9.892400      1.267914
  C      -2.764839      8.522282      0.072191
  H      -1.704975      8.275894     -0.004889
  H      -3.303630      7.625946      0.379405
  H      -3.122869      8.824185     -0.912677
25
Coordinates from ORCA-job 4_Cu5C4H12S4 E -9948.631852622326
  Cu     -6.045303      7.734965      3.792641
  Cu     -3.382123      8.533447      3.403793
  S      -7.735805      5.774852      3.921208
  C      -9.279987      6.652138      4.347336
  H      -9.083055      7.699264      4.575901
  H      -9.770793      6.181165      5.198429
  H      -9.951002      6.606471      3.491041
  Cu     -6.452834      5.638253      5.911512
  S      -4.696703      5.710652      7.548043
  H      -6.054620      6.728508      9.286413
  H      -5.581435      7.933797      8.074461
  C      -5.241139      7.067895      8.645703
  H      -4.405267      7.373149      9.273839
  Cu     -3.962550      7.073629      5.554527
  Cu     -5.369379      9.839307      1.750769
  S      -7.507028      9.604648      2.751304
  C      -8.535493      8.655374      1.578124
  H      -9.561545      8.651950      1.942369
  H      -8.519316      9.114336      0.590099
  H      -8.191805      7.623948      1.504635
  S      -3.009839      9.885427      1.305536
  C      -2.808571      8.515617      0.111296
  H      -1.751233      8.265606      0.033423
  H      -3.354149      7.624412      0.427604
  H      -3.169873      8.818230     -0.871139
25
Coordinates from ORCA-job 4_Cu5C4H12S4 E -9948.650032220026
  Cu     -6.039828      7.734736      3.795512
  Cu     -3.407132      8.533725      3.412870
  S      -7.692074      5.794396      3.927024
  C      -9.236670      6.665439      4.363645
  H      -9.035377      7.710195      4.598324
  H      -9.719146      6.187547      5.215292
  H      -9.910695      6.623297      3.510407
  Cu     -6.443121      5.649792      5.881264
  S      -4.714063      5.723047      7.472822
  H      -6.081331      6.737914      9.203493
  H      -5.604597      7.940023      7.986943
  C      -5.265274      7.079692      8.567841
  H      -4.432707      7.387765      9.198085
  Cu     -3.977049      7.073450      5.532782
  Cu     -5.378831      9.827798      1.782467
  S      -7.466782      9.587061      2.771957
  C      -8.487750      8.645395      1.586459
  H      -9.514854      8.636310      1.945590
  H      -8.463719      9.113228      0.603086
  H      -8.136476      7.616975      1.509322
  S      -3.066317      9.871659      1.358836
  C      -2.871727      8.500645      0.164886
  H      -1.815729      8.248258      0.083743
  H      -3.421185      7.614979      0.491300
  H      -3.238410      8.803717     -0.815081
25
Coordinates from ORCA-job 4_Cu5C4H12S4 E -9948.661282573830
  Cu     -6.033918      7.734609      3.798058
  Cu     -3.424230      8.532777      3.419948
  S      -7.661858      5.804919      3.932135
  C      -9.208724      6.671467      4.372980
  H      -9.007413      7.715514      4.610468
  H      -9.687265      6.189492      5.224505
  H      -9.884097      6.629612      3.520764
  Cu     -6.436009      5.656817      5.861396
  S      -4.726503      5.731964      7.423346
  H      -6.098365      6.744894      9.151733
  H      -5.619758      7.946867      7.934709
  C      -5.281132      7.088336      8.518560
  H      -4.449848      7.396927      9.150216
  Cu     -3.986689      7.074391      5.517344
  Cu     -5.383889      9.820871      1.803834
  S      -7.437950      9.578212      2.784836
  C      -8.457370      8.641364      1.592917
  H      -9.485224      8.630818      1.950034
  H      -8.429823      9.113818      0.611922
  H      -8.104433      7.613708      1.513687
  S      -3.103784      9.861718      1.393720
  C      -2.912128      8.490146      0.198390
  H      -1.856435      8.237231      0.115286
  H      -3.462501      7.606407      0.528317
  H      -3.281499      8.794162     -0.780239
25
Coordinates from ORCA-job 4_Cu5C4H12S4 E -9948.676207362854
  Cu     -6.024440      7.734488      3.801798
  Cu     -3.451199      8.530066      3.431060
  S      -7.616957      5.820602      3.939429
  C      -9.169061      6.678268      4.385396
  H      -8.970422      7.721702      4.627374
  H      -9.642276      6.189607      5.236051
  H      -9.845616      6.636072      3.534051
  Cu     -6.424405      5.668190      5.831211
  S      -4.743779      5.747163      7.349940
  H      -6.120915      6.754936      9.077789
  H      -5.641807      7.959324      7.862233
  C      -5.302966      7.101932      8.447541
  H      -4.472856      7.410583      9.080683
  Cu     -4.002133      7.077163      5.492989
  Cu     -5.390433      9.809702      1.836529
  S      -7.394971      9.565158      2.803604
  C      -8.415057      8.637275      1.602924
  H      -9.443671      8.625990      1.958165
  H      -8.383281      9.116798      0.625589
  H      -8.061932      7.610083      1.519080
  S      -3.158070      9.845162      1.446125
  C      -2.969201      8.473915      0.247301
  H      -1.913710      8.220896      0.162185
  H      -3.520370      7.591482      0.579277
  H      -3.341316      8.780483     -0.729457
25
Coordinates from ORCA-job 4_Cu5C4H12S4 E -9948.692911932947
  Cu     -6.011253      7.734294      3.806633
  Cu     -3.494862      8.524034      3.448041
  S      -7.551117      5.846460      3.946239
  C      -9.114443      6.685257      4.397852
  H      -8.923769      7.727923      4.649062
  H      -9.580491      6.184043      5.245086
  H      -9.790426      6.642860      3.546042
  Cu     -6.404823      5.688051      5.783825
  S      -4.764725      5.774474      7.241598
  H      -6.146908      6.770027      8.973249
  H      -5.672330      7.981307      7.761425
  C      -5.330109      7.124489      8.345783
  H      -4.500622      7.433383      8.979467
  Cu     -4.028313      7.083118      5.454565
  Cu     -5.398879      9.790037      1.888153
  S      -7.333740      9.542963      2.833755
  C      -8.360349      8.633713      1.621065
  H      -9.389021      8.622399      1.976275
  H      -8.324305      9.126149      0.650419
  H      -8.009144      7.606900      1.525617
  S      -3.233757      9.816141      1.525902
  C      -3.046558      8.447818      0.319593
  H      -1.991246      8.194732      0.233768
  H      -3.599682      7.565942      0.650100
  H      -3.419972      8.760526     -0.654646
25
Coordinates from ORCA-job 4_Cu5C4H12S4 E -9948.702143906159
  Cu     -5.996644      7.734327      3.810419
  Cu     -3.550938      8.518087      3.470787
  S      -7.470270      5.881381      3.936801
  C      -9.056571      6.680509      4.390302
  H      -8.884696      7.719835      4.667708
  H      -9.518064      6.151169      5.222730
  H      -9.723357      6.645493      3.531056
  Cu     -6.374053      5.715582      5.719592
  S      -4.777270      5.819105      7.119353
  H      -6.163288      6.795930      8.859435
  H      -5.706536      8.015966      7.648203
  C      -5.352618      7.162532      8.231134
  H      -4.522978      7.477635      8.861179
  Cu     -4.062540      7.089317      5.403913
  Cu     -5.404908      9.763552      1.958218
  S      -7.267458      9.512820      2.884098
  C      -8.316990      8.641007      1.659884
  H      -9.341492      8.625363      2.026561
  H      -8.286507      9.160072      0.703101
  H      -7.968692      7.616562      1.533004
  S      -3.307162      9.770809      1.620753
  C      -3.122941      8.406153      0.405152
  H      -2.068945      8.146994      0.324235
  H      -3.685380      7.527342      0.728969
  H      -3.490548      8.729499     -0.567717
25
Coordinates from ORCA-job 4_Cu5C4H12S4 E -9948.704600312105
  Cu     -5.988861      7.734793      3.810179
  Cu     -3.564599      8.534485      3.489822
  S      -7.435128      5.884884      3.901611
  C      -9.042886      6.645142      4.347760
  H      -8.890638      7.674830      4.669463
  H      -9.514832      6.078238      5.149006
  H      -9.689364      6.635995      3.472575
  Cu     -6.350839      5.716262      5.690451
  S      -4.764285      5.847688      7.105219
  H      -6.154868      6.832096      8.837449
  H      -5.718164      8.040897      7.607712
  C      -5.351149      7.200199      8.201138
  H      -4.522663      7.533855      8.822923
  Cu     -4.063292      7.075516      5.379359
  Cu     -5.399745      9.764537      1.991934
  S      -7.256601      9.511136      2.929918
  C      -8.334495      8.676012      1.704378
  H      -9.348648      8.639596      2.097061
  H      -8.331862      9.229638      0.766609
  H      -7.981436      7.660131      1.530231
  S      -3.300880      9.744416      1.636904
  C      -3.132270      8.366979      0.432409
  H      -2.082562      8.088761      0.361084
  H      -3.712917      7.500862      0.758665
  H      -3.487862      8.690093     -0.544994
25
Coordinates from ORCA-job 4_Cu5C4H12S4 E -9948.708301643192
  Cu     -5.965915      7.736721      3.809813
  Cu     -3.568554      8.549051      3.512521
  S      -7.365621      5.886689      3.831251
  C      -9.020780      6.553781      4.249139
  H      -8.927740      7.573266      4.622609
  H      -9.492027      5.929815      5.007290
  H      -9.635411      6.556401      3.351461
  Cu     -6.302726      5.735039      5.651627
  S      -4.737920      5.906683      7.110162
  H      -6.152861      6.896449      8.816323
  H      -5.736220      8.090525      7.565548
  C      -5.354463      7.269102      8.176001
  H      -4.534362      7.630408      8.793272
  Cu     -4.054829      7.070811      5.354524
  Cu     -5.377553      9.750579      2.040490
  S      -7.236143      9.513625      3.018761
  C      -8.383925      8.767169      1.801253
  H      -9.380204      8.727163      2.236193
  H      -8.410314      9.374251      0.897298
  H      -8.057864      7.757822      1.552115
  S      -3.270667      9.692025      1.638772
  C      -3.136833      8.293024      0.455595
  H      -2.094335      7.987988      0.389573
  H      -3.739298      7.446540      0.793305
  H      -3.484280      8.612115     -0.526030
25
Coordinates from ORCA-job 4_Cu5C4H12S4 E -9948.710823228379
  Cu     -5.933110      7.738751      3.810775
  Cu     -3.561951      8.541229      3.521119
  S      -7.280705      5.888905      3.756668
  C      -8.984593      6.446984      4.127138
  H      -8.967341      7.458962      4.532024
  H      -9.443187      5.773806      4.850070
  H      -9.565858      6.439175      3.207427
  Cu     -6.246141      5.773245      5.616833
  S      -4.719320      5.975361      7.130317
  H      -6.173609      6.960821      8.801174
  H      -5.760656      8.147796      7.542234
  C      -5.373372      7.340402      8.167461
  H      -4.567820      7.723008      8.791069
  Cu     -4.047207      7.092587      5.347943
  Cu     -5.347255      9.716654      2.087815
  S      -7.206005      9.514741      3.118204
  C      -8.435474      8.875791      1.923313
  H      -9.411712      8.850152      2.402731
  H      -8.478557      9.532518      1.055308
  H      -8.161171      7.870327      1.604478
  S      -3.240110      9.630465      1.622314
  C      -3.146391      8.214258      0.458141
  H      -2.110170      7.890144      0.384238
  H      -3.759514      7.382691      0.813107
  H      -3.499615      8.528271     -0.523033
25
Coordinates from ORCA-job 4_Cu5C4H12S4 E -9948.711782081569
  Cu     -5.907660      7.741268      3.811792
  Cu     -3.557291      8.525178      3.517167
  S      -7.210778      5.882364      3.700469
  C      -8.947093      6.358869      4.021401
  H      -8.989543      7.362845      4.444230
  H      -9.397626      5.652074      4.716805
  H      -9.497564      6.342043      3.082661
  Cu     -6.204570      5.810986      5.594820
  S      -4.713000      6.028509      7.155299
  H      -6.201135      7.013122      8.795122
  H      -5.778744      8.195463      7.534789
  C      -5.394626      7.395183      8.170994
  H      -4.602289      7.789219      8.804440
  Cu     -4.047927      7.123216      5.352033
  Cu     -5.325197      9.682902      2.118694
  S      -7.179127      9.524597      3.196899
  C      -8.470358      8.966539      2.029912
  H      -9.427945      8.947079      2.546504
  H      -8.528387      9.659337      1.191336
  H      -8.237918      7.967788      1.659905
  S      -3.221298      9.582763      1.596034
  C      -3.158411      8.151797      0.449688
  H      -2.126254      7.817372      0.364113
  H      -3.772926      7.329652      0.823859
  H      -3.523176      8.456876     -0.530095
25
Coordinates from ORCA-job 4_Cu5C4H12S4 E -9948.712176083654
  Cu     -5.897437      7.743173      3.813198
  Cu     -3.556032      8.511038      3.507708
  S      -7.176998      5.867684      3.678887
  C      -8.925797      6.312448      3.972844
  H      -8.993168      7.309293      4.408601
  H      -9.378070      5.588534      4.649412
  H      -9.458528      6.299962      3.023586
  Cu     -6.188265      5.829606      5.589776
  S      -4.714558      6.050421      7.173700
  H      -6.220677      7.039728      8.795552
  H      -5.785223      8.218126      7.536147
  C      -5.407703      7.419557      8.178447
  H      -4.622688      7.816376      8.819300
  Cu     -4.053536      7.145391      5.360202
  Cu     -5.316294      9.666445      2.127945
  S      -7.163447      9.541760      3.231624
  C      -8.479920      9.014507      2.078791
  H      -9.427874      8.988425      2.613129
  H      -8.550591      9.724631      1.255777
  H      -8.261485      8.022302      1.683867
  S      -3.215784      9.563272      1.575454
  C      -3.167837      8.123296      0.440112
  H      -2.137164      7.786640      0.344783
  H      -3.778338      7.304585      0.828274
  H      -3.543432      8.419843     -0.538250
25
Coordinates from ORCA-job 4_Cu5C4H12S4 E -9948.712600631148
  Cu     -5.890025      7.745289      3.816332
  Cu     -3.558208      8.493022      3.494086
  S      -7.143006      5.841441      3.664212
  C      -8.900132      6.268359      3.935139
  H      -8.983643      7.254288      4.392076
  H      -9.360920      5.525950      4.585771
  H      -9.415078      6.274017      2.975769
  Cu     -6.174432      5.839506      5.586190
  S      -4.720470      6.066177      7.192321
  H      -6.247256      7.068067      8.790404
  H      -5.792633      8.237235      7.529561
  C      -5.425208      7.441632      8.181403
  H      -4.648716      7.841822      8.830599
  Cu     -4.064350      7.168402      5.370537
  Cu     -5.309409      9.658885      2.137672
  S      -7.142892      9.571498      3.263162
  C      -8.474594      9.059557      2.119511
  H      -9.413917      9.012510      2.668203
  H      -8.565025      9.786590      1.313225
  H      -8.256561      8.077502      1.699804
  S      -3.215757      9.548996      1.554705
  C      -3.187819      8.098570      0.431723
  H      -2.159535      7.758457      0.322805
  H      -3.793144      7.284616      0.837769
  H      -3.578117      8.384653     -0.544112
25
Coordinates from ORCA-job 4_Cu5C4H12S4 E -9948.712828984151
  Cu     -5.886334      7.746012      3.820047
  Cu     -3.559669      8.477266      3.482325
  S      -7.120880      5.818704      3.661966
  C      -8.880041      6.245507      3.925908
  H      -8.965480      7.219356      4.407765
  H      -9.351394      5.488169      4.551611
  H      -9.384713      6.278441      2.961512
  Cu     -6.164753      5.835203      5.584852
  S      -4.726389      6.072461      7.204108
  H      -6.272825      7.083680      8.780014
  H      -5.804560      8.244009      7.516293
  C      -5.443905      7.453061      8.177680
  H      -4.675405      7.858630      8.833050
  Cu     -4.073122      7.183326      5.380375
  Cu     -5.303937      9.664044      2.146391
  S      -7.124752      9.596171      3.279735
  C      -8.456755      9.082007      2.135532
  H      -9.391250      9.008014      2.689837
  H      -8.566289      9.821247      1.342620
  H      -8.225472      8.111052      1.697393
  S      -3.217611      9.542671      1.543489
  C      -3.211105      8.087619      0.425492
  H      -2.186219      7.741376      0.304535
  H      -3.815358      7.278670      0.843200
  H      -3.612627      8.370343     -0.546866
25
Coordinates from ORCA-job 4_Cu5C4H12S4 E -9948.712948184209
  Cu     -5.882720      7.745560      3.822815
  Cu     -3.556334      8.464184      3.473865
  S      -7.108135      5.808794      3.664227
  C      -8.866848      6.238275      3.931332
  H      -8.949542      7.201182      4.435389
  H      -9.344673      5.469267      4.537735
  H      -9.367332      6.296110      2.965957
  Cu     -6.155377      5.826817      5.584592
  S      -4.728627      6.077428      7.211721
  H      -6.293508      7.085509      8.772106
  H      -5.823719      8.242868      7.506320
  C      -5.462523      7.457478      8.174147
  H      -4.701397      7.871059      8.833075
  Cu     -4.076032      7.193260      5.389770
  Cu     -5.296473      9.672013      2.153648
  S      -7.112010      9.606226      3.286664
  C      -8.440320      9.088655      2.138673
  H      -9.371435      8.991000      2.694992
  H      -8.564683      9.838444      1.357798
  H      -8.194706      8.128608      1.684513
  S      -3.215175      9.537094      1.538667
  C      -3.228889      8.084543      0.417077
  H      -2.207812      7.730389      0.287535
  H      -3.836695      7.279724      0.837728
  H      -3.635879      8.372555     -0.551480
25
Coordinates from ORCA-job 4_Cu5C4H12S4 E -9948.713088368275
  Cu     -5.875457      7.744412      3.826471
  Cu     -3.547399      8.446502      3.463916
  S      -7.090461      5.802600      3.666539
  C      -8.849219      6.230721      3.939654
  H      -8.930475      7.179328      4.470678
  H      -9.331678      5.446711      4.522873
  H      -9.345777      6.317659      2.974514
  Cu     -6.138900      5.815170      5.584327
  S      -4.728279      6.088504      7.222175
  H      -6.323003      7.082751      8.761159
  H      -5.857271      8.239765      7.493624
  C      -5.491357      7.463418      8.169561
  H      -4.742495      7.891143      8.833430
  Cu     -4.075158      7.205804      5.403065
  Cu     -5.282053      9.682906      2.165012
  S      -7.094878      9.612033      3.296355
  C      -8.420712      9.095508      2.144224
  H      -9.346504      8.969131      2.703494
  H      -8.562949      9.860411      1.381094
  H      -8.159631      8.150835      1.666950
  S      -3.206416      9.524989      1.533865
  C      -3.251819      8.080506      0.402227
  H      -2.237372      7.711951      0.261869
  H      -3.868769      7.282341      0.822324
  H      -3.662813      8.381940     -0.560533
25
Coordinates from ORCA-job 4_Cu5C4H12S4 E -9948.713224948660
  Cu     -5.866996      7.742049      3.830178
  Cu     -3.535205      8.425376      3.453869
  S      -7.071509      5.800887      3.669483
  C      -8.831441      6.222470      3.947169
  H      -8.914572      7.157147      4.502316
  H      -9.315444      5.423773      4.508842
  H      -9.324279      6.334242      2.982726
  Cu     -6.119734      5.804887      5.586386
  S      -4.725215      6.105219      7.234593
  H      -6.353789      7.076208      8.752359
  H      -5.898576      8.235913      7.483434
  C      -5.524018      7.470396      8.166998
  H      -4.789711      7.915660      8.835567
  Cu     -4.071488      7.219085      5.418090
  Cu     -5.262887      9.691251      2.176599
  S      -7.076243      9.611976      3.306502
  C      -8.403927      9.103207      2.152773
  H      -9.322704      8.949735      2.716622
  H      -8.563690      9.885118      1.410491
  H      -8.132053      8.175376      1.649141
  S      -3.191654      9.506459      1.530132
  C      -3.272633      8.076451      0.381812
  H      -2.266259      7.690846      0.230044
  H      -3.901964      7.285261      0.796589
  H      -3.684853      8.398048     -0.573848
25
Coordinates from ORCA-job 4_Cu5C4H12S4 E -9948.713322854188
  Cu     -5.859528      7.738436      3.833292
  Cu     -3.523566      8.403388      3.444844
  S      -7.052372      5.800187      3.671678
  C      -8.815478      6.209995      3.946319
  H      -8.905977      7.134312      4.517482
  H      -9.298708      5.399224      4.491123
  H      -9.303023      6.336612      2.980995
  Cu     -6.102069      5.799049      5.591172
  S      -4.720876      6.126073      7.247795
  H      -6.380905      7.072132      8.746775
  H      -5.937110      8.235509      7.477027
  C      -5.553871      7.480191      8.167065
  H      -4.834034      7.942154      8.840075
  Cu     -4.066661      7.230474      5.431050
  Cu     -5.243211      9.693016      2.185310
  S      -7.057766      9.609337      3.318010
  C      -8.394942      9.115328      2.169133
  H      -9.306085      8.945075      2.740445
  H      -8.567534      9.911884      1.445479
  H      -8.123260      8.200210      1.642648
  S      -3.174239      9.483416      1.527003
  C      -3.286471      8.071109      0.359529
  H      -2.287739      7.670317      0.197172
  H      -3.927573      7.285444      0.766406
  H      -3.697847      8.414169     -0.588960
25
Coordinates from ORCA-job 4_Cu5C4H12S4 E -9948.713390077492
  Cu     -5.858483      7.735728      3.834391
  Cu     -3.519389      8.392103      3.441316
  S      -7.044052      5.798577      3.673937
  C      -8.810172      6.200053      3.939622
  H      -8.908251      7.122356      4.512680
  H      -9.292662      5.385380      4.479272
  H      -9.292823      6.326920      2.971780
  Cu     -6.097314      5.799637      5.597140
  S      -4.718642      6.137981      7.254699
  H      -6.389719      7.073150      8.748089
  H      -5.951461      8.238527      7.478011
  C      -5.564428      7.487010      8.170031
  H      -4.850158      7.955514      8.844525
  Cu     -4.064292      7.233689      5.435481
  Cu     -5.234525      9.688709      2.185420
  S      -7.048888      9.608090      3.322917
  C      -8.396496      9.124953      2.182089
  H      -9.303405      8.954113      2.760059
  H      -8.572473      9.926445      1.464754
  H      -8.132768      8.211980      1.647906
  S      -3.164670      9.469834      1.526523
  C      -3.286652      8.068273      0.347342
  H      -2.290611      7.662479      0.180813
  H      -3.932333      7.283292      0.747979
  H      -3.696179      8.422249     -0.597908
25
Coordinates from ORCA-job 4_Cu5C4H12S4 E -9948.713494220096
  Cu     -5.861352      7.731148      3.835511
  Cu     -3.517285      8.376543      3.437637
  S      -7.033388      5.791533      3.678603
  C      -8.805420      6.179512      3.921314
  H      -8.918559      7.101906      4.491276
  H      -9.288193      5.361466      4.455667
  H      -9.276943      6.300596      2.947089
  Cu     -6.097268      5.804319      5.609712
  S      -4.717437      6.154651      7.264756
  H      -6.395924      7.081786      8.754774
  H      -5.962636      8.248111      7.483415
  C      -5.572492      7.499878      8.177165
  H      -4.862552      7.974121      8.852347
  Cu     -4.062738      7.235170      5.439016
  Cu     -5.225441      9.677373      2.180399
  S      -7.036436      9.609887      3.329153
  C      -8.404463      9.144522      2.206092
  H      -9.304018      8.977891      2.796989
  H      -8.584551      9.951177      1.495639
  H      -8.158323      8.231571      1.663525
  S      -3.152580      9.449696      1.526558
  C      -3.280231      8.063100      0.330936
  H      -2.286134      7.654363      0.159784
  H      -3.929509      7.276473      0.721952
  H      -3.686971      8.430248     -0.610443
25
Coordinates from ORCA-job 4_Cu5C4H12S4 E -9948.713553368865
  Cu     -5.866063      7.728901      3.835843
  Cu     -3.518704      8.369472      3.436644
  S      -7.027147      5.783453      3.682728
  C      -8.803312      6.163427      3.906769
  H      -8.926880      7.084476      4.476659
  H      -9.288689      5.342458      4.434324
  H      -9.264757      6.283904      2.927539
  Cu     -6.101193      5.807953      5.618915
  S      -4.718830      6.162965      7.270292
  H      -6.396458      7.091603      8.760254
  H      -5.962577      8.256878      7.487927
  C      -5.572955      7.508902      8.182205
  H      -4.863048      7.983522      8.857197
  Cu     -4.063452      7.235309      5.439752
  Cu     -5.222736      9.670458      2.174509
  S      -7.028934      9.614934      3.331472
  C      -8.410537      9.159458      2.221329
  H      -9.304963      8.996117      2.821100
  H      -8.593786      9.968221      1.514093
  H      -8.175872      8.245802      1.674860
  S      -3.148362      9.438906      1.526305
  C      -3.275081      8.058703      0.323591
  H      -2.281083      7.650394      0.150793
  H      -3.924685      7.270255      0.710145
  H      -3.680740      8.430567     -0.616379
25
Coordinates from ORCA-job 4_Cu5C4H12S4 E -9948.713642415951
  Cu     -5.872192      7.727489      3.835903
  Cu     -3.521891      8.364418      3.436702
  S      -7.020031      5.773145      3.686192
  C      -8.800423      6.144877      3.891362
  H      -8.934456      7.061884      4.465463
  H      -9.289510      5.318985      4.407835
  H      -9.250415      6.270036      2.907348
  Cu     -6.106436      5.809996      5.626703
  S      -4.723009      6.168805      7.274905
  H      -6.395920      7.105980      8.764672
  H      -5.958295      8.267374      7.490103
  C      -5.571167      7.519055      8.185400
  H      -4.859141      7.992152      8.859203
  Cu     -4.065955      7.235636      5.439854
  Cu     -5.221860      9.666419      2.169190
  S      -7.021216      9.622695      3.334129
  C      -8.415014      9.176332      2.235551
  H      -9.303630      9.011053      2.843548
  H      -8.604262      9.989135      1.534467
  H      -8.188104      8.265099      1.681737
  S      -3.147874      9.430402      1.525442
  C      -3.272431      8.052499      0.320293
  H      -2.278141      7.645085      0.147206
  H      -3.921746      7.262979      0.705031
  H      -3.677729      8.425513     -0.619374
25
Coordinates from ORCA-job 4_Cu5C4H12S4 E -9948.713685519368
  Cu     -5.878907      7.726621      3.835522
  Cu     -3.526115      8.359501      3.436620
  S      -7.013144      5.764228      3.687717
  C      -8.797751      6.125941      3.875255
  H      -8.942874      7.035562      4.458480
  H      -9.289995      5.292273      4.376080
  H      -9.235820      6.261169      2.887162
  Cu     -6.112285      5.812519      5.632867
  S      -4.728566      6.173745      7.279197
  H      -6.393557      7.122687      8.769999
  H      -5.952024      8.279004      7.492377
  C      -5.567572      7.530015      8.188426
  H      -4.851633      8.000440      8.859854
  Cu     -4.070203      7.237007      5.439833
  Cu     -5.222132      9.662956      2.164754
  S      -7.014763      9.629450      3.337793
  C      -8.419566      9.193257      2.249123
  H      -9.301733      9.020870      2.864565
  H      -8.616863     10.013032      1.558338
  H      -8.197366      8.288199      1.683329
  S      -3.149137      9.423239      1.523610
  C      -3.270058      8.044878      0.318974
  H      -2.275005      7.638907      0.147170
  H      -3.918838      7.254608      0.703066
  H      -3.674938      8.416931     -0.621246
25
Coordinates from ORCA-job 4_Cu5C4H12S4 E -9948.713737677517
  Cu     -5.884851      7.725874      3.835029
  Cu     -3.529491      8.353413      3.435866
  S      -7.005317      5.757595      3.687643
  C      -8.794005      6.107684      3.858737
  H      -8.951024      7.006049      4.456231
  H      -9.288643      5.263160      4.338630
  H      -9.219746      6.258756      2.867537
  Cu     -6.117015      5.815141      5.638018
  S      -4.734346      6.179600      7.283912
  H      -6.391919      7.140025      8.775327
  H      -5.947960      8.290814      7.493818
  C      -5.565246      7.541951      8.190962
  H      -4.845500      8.010627      8.859450
  Cu     -4.074568      7.239422      5.440569
  Cu     -5.221682      9.659862      2.161635
  S      -7.008323      9.634146      3.343099
  C      -8.423745      9.209555      2.263536
  H      -9.298378      9.024746      2.886115
  H      -8.631458     10.039298      1.587763
  H      -8.204232      8.314541      1.680944
  S      -3.150115      9.415526      1.520831
  C      -3.268907      8.035952      0.317585
  H      -2.273333      7.630855      0.147128
  H      -3.917507      7.245558      0.701685
  H      -3.673536      8.406891     -0.623185
25
Coordinates from ORCA-job 4_Cu5C4H12S4 E -9948.713778635762
  Cu     -5.890090      7.725421      3.834191
  Cu     -3.531788      8.347537      3.435003
  S      -6.997830      5.753739      3.686409
  C      -8.790328      6.091485      3.842397
  H      -8.959669      6.976365      4.456510
  H      -9.286236      5.234677      4.298682
  H      -9.204223      6.261116      2.849168
  Cu     -6.121724      5.818392      5.642466
  S      -4.740015      6.185269      7.288083
  H      -6.389707      7.157247      8.780666
  H      -5.944357      8.302280      7.494750
  C      -5.562826      7.553823      8.192946
  H      -4.838994      8.021016      8.857975
  Cu     -4.078473      7.241694      5.441426
  Cu     -5.221026      9.657333      2.159032
  S      -7.002684      9.636685      3.348778
  C      -8.427981      9.223818      2.277519
  H      -9.294366      9.022754      2.906581
  H      -8.647681     10.065117      1.619993
  H      -8.209725      8.341528      1.675371
  S      -3.151023      9.408633      1.517774
  C      -3.268322      8.026651      0.317133
  H      -2.272422      7.621468      0.149163
  H      -3.917622      7.237057      0.701649
  H      -3.671732      8.395936     -0.624800
25
Coordinates from ORCA-job 4_Cu5C4H12S4 E -9948.713786573957
  Cu     -5.891527      7.724667      3.833896
  Cu     -3.531284      8.342346      3.433943
  S      -6.990271      5.751887      3.684395
  C      -8.785150      6.081136      3.830628
  H      -8.963105      6.955468      4.457312
  H      -9.281338      5.215220      4.269090
  H      -9.191250      6.264942      2.836664
  Cu     -6.122672      5.819501      5.644852
  S      -4.743635      6.190160      7.291540
  H      -6.390853      7.169189      8.782626
  H      -5.946468      8.308948      7.491790
  C      -5.564480      7.562844      8.192237
  H      -4.839251      8.031898      8.854409
  Cu     -4.079903      7.243290      5.443139
  Cu     -5.219102      9.656663      2.159424
  S      -6.997532      9.637341      3.355266
  C      -8.429347      9.233366      2.289113
  H      -9.289365      9.017790      2.922101
  H      -8.658647     10.084124      1.647189
  H      -8.211289      8.362171      1.670955
  S      -3.150991      9.403203      1.515123
  C      -3.271254      8.019311      0.316733
  H      -2.276103      7.611907      0.149831
  H      -3.922288      7.231769      0.702475
  H      -3.673741      8.387899     -0.625866
25
Coordinates from ORCA-job 4_Cu5C4H12S4 E -9948.713795647491
  Cu     -5.889784      7.723652      3.834134
  Cu     -3.528389      8.337160      3.432242
  S      -6.981907      5.750332      3.682608
  C      -8.778351      6.073649      3.822387
  H      -8.962289      6.940981      4.456998
  H      -9.274282      5.201673      4.249073
  H      -9.179602      6.266368      2.828091
  Cu     -6.120300      5.819352      5.646473
  S      -4.745224      6.195482      7.295156
  H      -6.396272      7.176057      8.781369
  H      -5.953555      8.312134      7.486630
  C      -5.570376      7.569569      8.190188
  H      -4.846899      8.042870      8.851271
  Cu     -4.079146      7.244977      5.445686
  Cu     -5.215594      9.656989      2.161616
  S      -6.991710      9.637866      3.362188
  C      -8.428156      9.240824      2.299507
  H      -9.283942      9.015708      2.934978
  H      -8.663418     10.098041      1.668403
  H      -8.211198      8.377028      1.670655
  S      -3.149565      9.397977      1.512405
  C      -3.277102      8.013724      0.314947
  H      -2.283803      7.602169      0.147182
  H      -3.930833      7.229138      0.702135
  H      -3.679148      8.383318     -0.627454
25
Coordinates from ORCA-job 4_Cu5C4H12S4 E -9948.713780281445
  Cu     -5.887190      7.723267      3.834373
  Cu     -3.525385      8.334976      3.431577
  S      -6.975767      5.749537      3.680944
  C      -8.773152      6.069484      3.816066
  H      -8.960663      6.935240      4.451763
  H      -9.268617      5.195556      4.239352
  H      -9.171976      6.263248      2.820941
  Cu     -6.118478      5.819827      5.647157
  S      -4.745792      6.198638      7.296947
  H      -6.400167      7.179459      8.779371
  H      -5.958457      8.313302      7.482164
  C      -5.574555      7.573258      8.187985
  H      -4.852778      8.049737      8.848665
  Cu     -4.077543      7.245342      5.447137
  Cu     -5.213323      9.657502      2.163460
  S      -6.987831      9.638514      3.367270
  C      -8.427002      9.245234      2.306878
  H      -9.281182      9.018019      2.943848
  H      -8.663690     10.104659      1.679339
  H      -8.212222      8.383249      1.674749
  S      -3.149011      9.395571      1.510698
  C      -3.282534      8.010206      0.315008
  H      -2.290739      7.595473      0.146079
  H      -3.937849      7.228017      0.704379
  H      -3.684942      8.379726     -0.627282
25
Coordinates from ORCA-job 4_Cu5C4H12S4 E -9948.713775998080
  Cu     -5.883851      7.723218      3.834327
  Cu     -3.521926      8.335217      3.431558
  S      -6.970932      5.748912      3.679466
  C      -8.768798      6.067405      3.811310
  H      -8.957940      6.935790      4.442921
  H      -9.263751      5.194684      4.237703
  H      -9.167005      6.256222      2.814948
  Cu     -6.117003      5.820352      5.647253
  S      -4.745519      6.200161      7.297450
  H      -6.403364      7.180165      8.776452
  H      -5.961643      8.313070      7.478236
  C      -5.577624      7.574632      8.185682
  H      -4.857749      8.053353      8.846861
  Cu     -4.075038      7.244515      5.447708
  Cu     -5.212234      9.658323      2.164730
  S      -6.985425      9.639390      3.370982
  C      -8.425944      9.247988      2.311834
  H      -9.280698      9.024679      2.949512
  H      -8.660277     10.106525      1.682217
  H      -8.214276      8.383504      1.682021
  S      -3.149389      9.395576      1.509395
  C      -3.287892      8.008088      0.316608
  H      -2.297262      7.591140      0.146127
  H      -3.943623      7.227810      0.709170
  H      -3.691682      8.376323     -0.625606
25
Coordinates from ORCA-job 4_Cu5C4H12S4 E -9948.713791250391
  Cu     -5.881489      7.723504      3.834467
  Cu     -3.519779      8.335410      3.431810
  S      -6.966542      5.747970      3.678161
  C      -8.765101      6.064309      3.806232
  H      -8.956343      6.934158      4.435194
  H      -9.259728      5.192142      4.234154
  H      -9.161997      6.249999      2.808735
  Cu     -6.116321      5.821373      5.647279
  S      -4.745877      6.201745      7.297995
  H      -6.406219      7.182051      8.773714
  H      -5.962152      8.314648      7.475968
  C      -5.579432      7.576441      8.184378
  H      -4.860851      8.055412      8.846782
  Cu     -4.073709      7.244240      5.448092
  Cu     -5.211561      9.659024      2.166204
  S      -6.983266      9.640750      3.374362
  C      -8.424998      9.251103      2.316263
  H      -9.280206      9.030902      2.954450
  H      -8.657480     10.109004      1.685084
  H      -8.215606      8.384931      1.687990
  S      -3.150201      9.394996      1.508382
  C      -3.292633      8.005784      0.317991
  H      -2.302886      7.587375      0.145935
  H      -3.948403      7.226835      0.713202
  H      -3.698064      8.372936     -0.623957
25
Coordinates from ORCA-job 4_Cu5C4H12S4 E -9948.713774673957
  Cu     -5.880700      7.723591      3.834577
  Cu     -3.518649      8.334180      3.431786
  S      -6.962455      5.746317      3.677677
  C      -8.762009      6.059450      3.799954
  H      -8.956679      6.929068      4.428214
  H      -9.256675      5.186618      4.226468
  H      -9.155926      6.244521      2.801148
  Cu     -6.116857      5.822785      5.648496
  S      -4.746984      6.204218      7.299491
  H      -6.408613      7.185738      8.772684
  H      -5.961360      8.318241      7.475993
  C      -5.580475      7.579499      8.184832
  H      -4.862494      8.057578      8.848517
  Cu     -4.073496      7.244613      5.448738
  Cu     -5.210908      9.658692      2.166707
  S      -6.980773      9.642383      3.377293
  C      -8.424988      9.255525      2.321597
  H      -9.279295      9.035728      2.961166
  H      -8.657723     10.114233      1.691579
  H      -8.217664      8.389806      1.692012
  S      -3.150566      9.392695      1.507271
  C      -3.295578      8.003008      0.317764
  H      -2.306318      7.584183      0.143952
  H      -3.950914      7.224445      0.714485
  H      -3.702746      8.369924     -0.623534
25
Coordinates from ORCA-job 4_Cu5C4H12S4 E -9948.713779828817
  Cu     -5.880127      7.723757      3.834693
  Cu     -3.517959      8.333310      3.431746
  S      -6.960576      5.745797      3.677562
  C      -8.760575      6.057547      3.797190
  H      -8.956738      6.926336      4.426169
  H      -9.255531      5.184044      4.221983
  H      -9.152808      6.243707      2.797924
  Cu     -6.117003      5.823456      5.648970
  S      -4.747530      6.205822      7.300437
  H      -6.410082      7.187139      8.772538
  H      -5.961193      8.320243      7.477022
  C      -5.581207      7.580920      8.185738
  H      -4.863604      8.058236      8.850348
  Cu     -4.073502      7.245246      5.449332
  Cu     -5.210531      9.658257      2.167082
  S      -6.979704      9.643006      3.378532
  C      -8.424938      9.257176      2.323839
  H      -9.278637      9.036739      2.963996
  H      -8.658379     10.116489      1.694868
  H      -8.217923      8.392279      1.693026
  S      -3.150570      9.390967      1.506691
  C      -3.296882      8.001668      0.316949
  H      -2.307771      7.583163      0.141620
  H      -3.951561      7.222806      0.714194
  H      -3.705514      8.368932     -0.623581
