25
Coordinates from ORCA-job 4_Cu5C4H12S4 E -9948.713779828817
  Cu         -5.88012660547810      7.72375662136080      3.83469271804477
  Cu         -3.51795900733835      8.33330981915486      3.43174552538309
  S          -6.96057602071358      5.74579699438821      3.67756214138257
  C          -8.76057523251819      6.05754723827893      3.79719016467081
  H          -8.95673766147484      6.92633574192779      4.42616877028975
  H          -9.25553132546372      5.18404361969728      4.22198296397747
  H          -9.15280785867511      6.24370695796532      2.79792381402357
  Cu         -6.11700300529293      5.82345629900207      5.64896981801159
  S          -4.74753017488823      6.20582197266763      7.30043672598398
  H          -6.41008244518802      7.18713890871915      8.77253804748375
  H          -5.96119330085857      8.32024300416372      7.47702216846495
  C          -5.58120735440369      7.58091960236915      8.18573797439544
  H          -4.86360361223582      8.05823637261938      8.85034825801242
  Cu         -4.07350168775131      7.24524559647176      5.44933185276148
  Cu         -5.21053085001810      9.65825671405231      2.16708198554710
  S          -6.97970392957065      9.64300617589741      3.37853216775068
  C          -8.42493788473405      9.25717592527514      2.32383932320334
  H          -9.27863656765473      9.03673937731915      2.96399597120232
  H          -8.65837871923908     10.11648916810199      1.69486759969857
  H          -8.21792335257415      8.39227886067604      1.69302638051527
  S          -3.15056970968420      9.39096681656909      1.50669100676697
  C          -3.29688236192960      8.00166785594401      0.31694926645348
  H          -2.30777117434140      7.58316311712248      0.14161970511432
  H          -3.95156126610929      7.22280636223648      0.71419410319585
  H          -3.70551389186404      8.36893187801954     -0.62358145233370
