12
Coordinates from ORCA-job conv
  Cu         -5.30125100000000      7.16974100000000      4.88161100000000
  S          -1.13192100000000      7.38773200000000      6.92804400000000
  C          -1.64029200000000      7.91183600000000      8.60261200000000
  H          -2.35549400000000      7.21022400000000      9.04169400000000
  H          -2.11905100000000      8.89543400000000      8.58733600000000
  H          -0.77269300000000      7.97085000000000      9.27120700000000
  S          -7.31251300000000      7.14133300000000      3.85779100000000
  C          -7.17793300000000      8.65566900000000      2.84450200000000
  H          -8.09523300000000      8.81930000000000      2.26574000000000
  H          -6.34327000000000      8.59267800000000      2.14011000000000
  H          -7.01073200000000      9.54019600000000      3.46603100000000
  Cu         -3.13935700000000      7.27213800000000      5.90465800000000
