12
XYZ file generated by orca_plot on BaseName=1_Cu2C2H6S2
  Cu     -5.301251      7.169741      4.881611
  S      -1.131921      7.387732      6.928044
  C      -1.640292      7.911836      8.602612
  H      -2.355494      7.210224      9.041694
  H      -2.119051      8.895434      8.587336
  H      -0.772693      7.970850      9.271207
  S      -7.312513      7.141333      3.857791
  C      -7.177933      8.655669      2.844502
  H      -8.095233      8.819300      2.265740
  H      -6.343270      8.592678      2.140110
  H      -7.010732      9.540196      3.466031
  Cu     -3.139357      7.272138      5.904658
