13
XYZ file generated by orca_plot on BaseName=2_Cu3C2H6S2
  Cu     -6.451745      6.551103      4.893427
  Cu     -4.252164      7.050162      4.346518
  S      -8.547096      6.157554      5.313791
  C      -9.317256      7.818761      5.280156
  H     -10.254048      7.791579      5.836659
  H      -9.525417      8.088968      4.244594
  H      -8.665806      8.570800      5.719217
  Cu     -7.696526      5.989110      7.273603
  S      -6.875701      5.808870      9.220187
  H      -5.338551      7.677259      8.839221
  H      -4.671182      6.168984      8.210116
  C      -5.239846      6.608136      9.028891
  H      -4.679616      6.472919      9.957070
