14
Coordinates from ORCA-job 1_d-cys E -721.547975297942
  S       1.961453      0.543495      0.513888
  O      -1.371781      1.541174     -0.298571
  O      -2.246453     -0.135505      0.755641
  N      -0.066397     -1.951289      0.091512
  C      -0.292467     -0.686413     -0.673312
  C       1.046283      0.013530     -0.973043
  C      -1.277759      0.235931     -0.060086
  H      -0.713295     -0.990627     -1.641461
  H       1.700020     -0.657090     -1.542155
  H       0.879225      0.901262     -1.592849
  H      -1.009838     -2.334830      0.248814
  H       0.190889     -1.677696      1.044803
  H       2.255652     -0.693908      0.946028
  H      -2.131586      1.792351      0.256108
14
Coordinates from ORCA-job 1_d-cys E -721.564057135448
  S       1.930132      0.563074      0.528319
  O      -1.311967      1.521164     -0.322154
  O      -2.200954     -0.201455      0.762916
  N      -0.084176     -1.947364      0.086944
  C      -0.303307     -0.695173     -0.664741
  C       1.024530      0.017548     -0.961088
  C      -1.306003      0.213291     -0.033393
  H      -0.728660     -0.988597     -1.641784
  H       1.680067     -0.644438     -1.539317
  H       0.844043      0.914242     -1.567156
  H      -1.016793     -2.356410      0.230499
  H       0.184400     -1.681580      1.043979
  H       2.283724     -0.670724      0.946436
  H      -2.071092      1.856806      0.205856
14
Coordinates from ORCA-job 1_d-cys E -721.569698059918
  S       1.916411      0.562588      0.548293
  O      -1.288739      1.489815     -0.365647
  O      -2.179063     -0.219591      0.782300
  N      -0.089771     -1.950695      0.075441
  C      -0.314355     -0.698774     -0.642681
  C       1.004148      0.021101     -0.941519
  C      -1.344548      0.200535      0.026471
  H      -0.750258     -0.964602     -1.626573
  H       1.652953     -0.629443     -1.540386
  H       0.812842      0.934322     -1.518264
  H      -1.001644     -2.398499      0.208521
  H       0.207813     -1.715927      1.030758
  H       2.331580     -0.666992      0.938153
  H      -2.033424      1.936548      0.100450
14
Coordinates from ORCA-job 1_d-cys E -721.570683670396
  S       1.899328      0.562919      0.567532
  O      -1.304224      1.488385     -0.384869
  O      -2.179098     -0.207560      0.828859
  N      -0.098609     -1.956492      0.069131
  C      -0.318342     -0.699647     -0.644517
  C       1.003978      0.017138     -0.931483
  C      -1.360670      0.200224      0.022997
  H      -0.749729     -0.957111     -1.631461
  H       1.659041     -0.635570     -1.521015
  H       0.821667      0.930745     -1.509502
  H      -1.006915     -2.414918      0.190122
  H       0.199597     -1.733156      1.026126
  H       2.393240     -0.649764      0.913885
  H      -2.035319      1.955191      0.079511
14
Coordinates from ORCA-job 1_d-cys E -721.571018669785
  S       1.904208      0.553661      0.574073
  O      -1.338362      1.478202     -0.420256
  O      -2.148663     -0.186646      0.888416
  N      -0.097892     -1.958794      0.053526
  C      -0.317238     -0.693354     -0.641599
  C       1.007153      0.016345     -0.928286
  C      -1.350715      0.209007      0.050856
  H      -0.762401     -0.930250     -1.627198
  H       1.657893     -0.640924     -1.516702
  H       0.833381      0.933807     -1.502313
  H      -1.001344     -2.424844      0.176070
  H       0.223904     -1.755299      1.006468
  H       2.378442     -0.663402      0.930702
  H      -2.064420      1.962876      0.031559
14
Coordinates from ORCA-job 1_d-cys E -721.571304350107
  S       1.889598      0.557298      0.585073
  O      -1.373264      1.458251     -0.461658
  O      -2.076773     -0.147711      0.974365
  N      -0.102109     -1.965588      0.030643
  C      -0.319571     -0.693171     -0.645376
  C       1.005726      0.014479     -0.924902
  C      -1.344734      0.212471      0.067352
  H      -0.776246     -0.907172     -1.630327
  H       1.660022     -0.648036     -1.502869
  H       0.841362      0.932261     -1.500953
  H      -0.998552     -2.443343      0.149050
  H       0.240666     -1.783967      0.979198
  H       2.352141     -0.657864      0.961263
  H      -2.074318      1.972478     -0.005543
14
Coordinates from ORCA-job 1_d-cys E -721.571498060192
  S       1.882042      0.557376      0.601546
  O      -1.418566      1.435656     -0.505115
  O      -2.001898     -0.105268      1.042783
  N      -0.115195     -1.972080      0.012769
  C      -0.321890     -0.691676     -0.645719
  C       1.007940      0.013054     -0.914712
  C      -1.327730      0.221537      0.082538
  H      -0.785499     -0.883857     -1.631587
  H       1.665153     -0.653402     -1.485227
  H       0.852505      0.931419     -1.492421
  H      -1.010754     -2.452715      0.120034
  H       0.232330     -1.810492      0.962358
  H       2.368733     -0.651279      0.967187
  H      -2.103229      1.962113     -0.039115
14
Coordinates from ORCA-job 1_d-cys E -721.571651169848
  S       1.878523      0.564460      0.603223
  O      -1.462368      1.409885     -0.543429
  O      -1.902041     -0.060245      1.111595
  N      -0.120571     -1.977358     -0.005920
  C      -0.322055     -0.691693     -0.651001
  C       1.010883      0.013835     -0.914853
  C      -1.302647      0.229400      0.092514
  H      -0.790928     -0.868166     -1.636839
  H       1.671610     -0.655093     -1.478892
  H       0.858012      0.929647     -1.497551
  H      -1.016565     -2.458696      0.093652
  H       0.226613     -1.829355      0.946012
  H       2.315893     -0.651204      1.006323
  H      -2.120412      1.944968     -0.049518
14
Coordinates from ORCA-job 1_d-cys E -721.571735445554
  S       1.878815      0.568413      0.606742
  O      -1.490118      1.394379     -0.566456
  O      -1.847662     -0.036159      1.143662
  N      -0.126767     -1.980505     -0.011639
  C      -0.323249     -0.691993     -0.652314
  C       1.013364      0.014567     -0.910458
  C      -1.292123      0.233357      0.094580
  H      -0.785720     -0.863719     -1.641500
  H       1.676141     -0.653275     -1.473813
  H       0.859110      0.929142     -1.495063
  H      -1.024586     -2.462114      0.072630
  H       0.200947     -1.836764      0.948130
  H       2.315236     -0.647449      1.011574
  H      -2.129441      1.932505     -0.050758
14
Coordinates from ORCA-job 1_d-cys E -721.571774829889
  S       1.887280      0.565781      0.604440
  O      -1.508445      1.385743     -0.579481
  O      -1.818145     -0.023165      1.161916
  N      -0.125198     -1.979813     -0.011202
  C      -0.322266     -0.690567     -0.652233
  C       1.016107      0.016317     -0.909654
  C      -1.288244      0.235683      0.096223
  H      -0.777647     -0.863421     -1.644025
  H       1.676411     -0.649631     -1.478049
  H       0.858509      0.931947     -1.492124
  H      -1.022924     -2.464553      0.059809
  H       0.182393     -1.834173      0.955314
  H       2.303263     -0.655213      1.016114
  H      -2.137148      1.925448     -0.051732
14
Coordinates from ORCA-job 1_d-cys E -721.571789494065
  S       1.895879      0.559334      0.603865
  O      -1.521794      1.379625     -0.587998
  O      -1.803317     -0.013630      1.172872
  N      -0.122659     -1.977865     -0.008386
  C      -0.320824     -0.688560     -0.650852
  C       1.018202      0.018025     -0.908307
  C      -1.287416      0.237558      0.098332
  H      -0.771490     -0.862886     -1.644163
  H       1.674530     -0.646319     -1.483035
  H       0.858637      0.936386     -1.486254
  H      -1.018794     -2.467590      0.050301
  H       0.167987     -1.829532      0.963076
  H       2.301702     -0.665727      1.013727
  H      -2.146696      1.921566     -0.057861
14
Coordinates from ORCA-job 1_d-cys E -721.571796809277
  S       1.903923      0.551735      0.603490
  O      -1.530207      1.375502     -0.593268
  O      -1.796550     -0.007402      1.178291
  N      -0.119398     -1.975263     -0.004141
  C      -0.319148     -0.686798     -0.649260
  C       1.019593      0.020084     -0.907496
  C      -1.287369      0.238661      0.099441
  H      -0.767494     -0.863385     -1.642958
  H       1.671713     -0.642447     -1.489037
  H       0.858496      0.941810     -1.479869
  H      -1.013208     -2.470501      0.043985
  H       0.157210     -1.823346      0.970908
  H       2.301045     -0.677346      1.009657
  H      -2.154658      1.919082     -0.064425
14
Coordinates from ORCA-job 1_d-cys E -721.571800450645
  S       1.909437      0.545634      0.603678
  O      -1.535267      1.372428     -0.596812
  O      -1.792582     -0.002918      1.181197
  N      -0.116913     -1.973044     -0.000355
  C      -0.317861     -0.685667     -0.647847
  C       1.020322      0.021910     -0.906940
  C      -1.287041      0.239400      0.099920
  H      -0.766021     -0.864139     -1.641169
  H       1.669382     -0.638968     -1.493821
  H       0.858323      0.946516     -1.474475
  H      -1.008302     -2.473311      0.039163
  H       0.149261     -1.818422      0.977142
  H       2.301322     -0.686425      1.005742
  H      -2.160115      1.917391     -0.070106
14
Coordinates from ORCA-job 1_d-cys E -721.571801825557
  S       1.911513      0.543111      0.603746
  O      -1.536582      1.371217     -0.598157
  O      -1.791047     -0.001142      1.181928
  N      -0.115672     -1.971923      0.001740
  C      -0.317286     -0.685367     -0.647063
  C       1.020449      0.022882     -0.906941
  C      -1.286593      0.239743      0.099856
  H      -0.766417     -0.864985     -1.639738
  H       1.668404     -0.637013     -1.496199
  H       0.858043      0.948855     -1.472109
  H      -1.005436     -2.475305      0.036386
  H       0.145290     -1.816203      0.980421
  H       2.300958     -0.690319      1.003979
  H      -2.161677      1.916835     -0.072532
14
Coordinates from ORCA-job 1_d-cys E -721.571802373434
  S       1.911793      0.542902      0.603531
  O      -1.536410      1.371002     -0.598417
  O      -1.790224     -0.000617      1.182148
  N      -0.115179     -1.971543      0.002592
  C      -0.317112     -0.685441     -0.646698
  C       1.020377      0.023185     -0.907239
  C      -1.286147      0.239974      0.099798
  H      -0.767225     -0.865639     -1.638856
  H       1.668318     -0.636310     -1.496976
  H       0.857785      0.949471     -1.471815
  H      -1.003942     -2.476781      0.034397
  H       0.143187     -1.815780      0.981913
  H       2.300071     -0.690913      1.003800
  H      -2.161346      1.916875     -0.072860
