14
Coordinates from ORCA-job 1_d-cys
  S   1.91179315322776      0.54290209573292      0.60353078286696
  O   -1.53641012537466      1.37100225449151     -0.59841735158465
  O   -1.79022370277598     -0.00061679685815      1.18214761575843
  N   -0.11517905716592     -1.97154264991137      0.00259208231582
  C   -0.31711244070526     -0.68544083163431     -0.64669780986856
  C   1.02037709032088      0.02318544318360     -0.90723864942901
  C   -1.28614716483051      0.23997355077737      0.09979822491526
  H   -0.76722481269845     -0.86563862465592     -1.63885593198274
  H   1.66831782997231     -0.63631014514866     -1.49697629583008
  H   0.85778501875236      0.94947062066901     -1.47181488163085
  H   -1.00394162493541     -2.47678074639131      0.03439671212954
  H   0.14318662742134     -1.81578047095215      0.98191266577694
  H   2.30007145075941     -0.69091334958084      1.00380030606353
  H   -2.16134624196788      1.91687465027830     -0.07286046950058
