14
Coordinates from ORCA-job 2_d-cys
  S   2.28594901835957      0.11896623209596      0.25573360213002
  O   -1.39065913451202      1.42300242042060     -0.89980014919885
  O   -0.98424070087122      0.95688063791787      1.27785719197792
  N   -1.34183706945427     -1.72753773251017     -0.32884161662239
  C   -0.32854797470656     -0.66444187362959     -0.42374703381622
  C   0.90891415743585     -1.07588301966289      0.36749662263823
  C   -0.90178500735830      0.65212591142341      0.09745122977962
  H   -0.06339473955348     -0.53738427864542     -1.48245923472956
  H   0.65861226194885     -1.23995985550897      1.42396369645311
  H   1.29704536183615     -2.01596637976817     -0.04592316483223
  H   -2.13138848106822     -1.51420632440233     -0.94396206808272
  H   -1.71376337235393     -1.76588067364432      0.62504285433762
  H   1.75506350610524      1.05345771569911      1.07902237069630
  H   -1.81437182580765      2.21018322021491     -0.49125030073086
