11
Coordinates from ORCA-job 0_CuC2H6S2 E -2514.793948941418
  Cu         -5.49623046944774      6.97647823238940      4.69542899028029
  S          -3.67805304673684      6.95606308577638      5.80818068485450
  C          -4.11489049387983      7.76231834856337      7.38894158335722
  H          -4.90398599673519      7.22220306974645      7.91399930435079
  H          -4.44706734257084      8.79087726015952      7.23949591182577
  H          -3.23059407965213      7.78166120263839      8.03152679415960
  S          -7.30347198819873      6.99231145043667      3.56333263648814
  C          -7.31608763064018      8.64507335085630      2.78270140614062
  H          -8.22685796893227      8.74782325893970      2.18664115290491
  H          -6.46002999239179      8.78567277182269      2.12114587401456
  H          -7.30676054081441      9.44349907367110      3.52627388162355
