12
Coordinates from ORCA-job 1_Cu2C2H6S2 E -4154.313058837160
  Cu         -5.30125110954236      7.16974058330854      4.88161141859907
  S          -1.13192052882084      7.38773238236636      6.92804394474870
  C          -1.64029170217636      7.91183594330414      8.60261233269225
  H          -2.35549372597027      7.21022378885312      9.04169363463194
  H          -2.11905077579055      8.89543360758875      8.58733577768034
  H          -0.77269337276135      7.97085029395035      9.27120749574446
  S          -7.31251346268655      7.14133268920601      3.85779074219998
  C          -7.17793333264408      8.65566895759062      2.84450247661005
  H          -8.09523285395990      8.81930038657989      2.26574042871599
  H          -6.34326966122183      8.59267812647274      2.14010963426163
  H          -7.01073215127981      9.54019586663473      3.46603085999138
  Cu         -3.13935732314602      7.27213837414458      5.90465825412414
