13
Coordinates from ORCA-job 2_Cu3C2H6S2 E -5794.102555008849
  Cu         -6.45174515746411      6.55110295261053      4.89342740720475
  Cu         -4.25216362377692      7.05016242667795      4.34651836767273
  S          -8.54709556186069      6.15755403409469      5.31379138335615
  C          -9.31725611415725      7.81876120889329      5.28015646072145
  H         -10.25404751361457      7.79157853852066      5.83665870461271
  H          -9.52541730617315      8.08896752312745      4.24459390877177
  H          -8.66580648673827      8.57080005140032      5.71921720423476
  Cu         -7.69652621125761      5.98910979510532      7.27360286748918
  S          -6.87570086369399      5.80887031713603      9.22018650894189
  H          -5.33855099210128      7.67725949954187      8.83922103398050
  H          -4.67118180225762      6.16898414925480      8.21011631410809
  C          -5.23984647126729      6.60813590691708      9.02889135007661
  H          -4.67961589563714      6.47291859671991      9.95707048882930
