25
Coordinates from ORCA-job 4_Cu5C4H12S4 E -9948.645665883114
  Cu         -5.92545700412847      7.72484821016630      3.82679407608340
  Cu         -3.58047276189989      8.38230763532779      3.45221830211614
  S          -7.23022871578247      5.83345187262476      3.76513830180347
  C          -8.93633220218829      6.38337929138633      4.12464602638922
  H          -8.93477202443067      7.38176276622835      4.56091842471053
  H          -9.42068235669969      5.68722217962217      4.80889890578647
  H          -9.49991977851372      6.40753463061524      3.19072395586432
  Cu         -6.16723347439289      5.78187896566627      5.61418997793914
  S          -4.72115567095637      6.03225924601011      7.21435675537820
  H          -6.27726570433973      6.95315541429089      8.83664468366071
  H          -5.85335223818793      8.16706795939988      7.61014708270391
  C          -5.46699859179043      7.36098379607681      8.23246092366902
  H          -4.69953673496329      7.76343450631198      8.89402487285641
  Cu         -4.10935623578943      7.18242636578400      5.39741864499328
  Cu         -5.27363157895990      9.69521210866220      2.17041669061194
  S          -7.15245787100218      9.55126593312491      3.17186273277204
  C          -8.37466604621657      8.93078822677573      1.96179953891364
  H          -9.34810527078301      8.86473387068266      2.45010340473782
  H          -8.45123186453231      9.61633096610321      1.11818589410367
  H          -8.09269814097853      7.94140969399947      1.60298932451304
  S          -3.18514469484472      9.55865095952563      1.59022686694263
  C          -3.18814840834955      8.22694624369994      0.33184378399430
  H          -2.16363409895538      7.88193297999643      0.19027457120103
  H          -3.80259464618566      7.38484035165212      0.64736185492316
  H          -3.56576988512878      8.61321682626666     -0.61477859666760
