27
Energy =
H    -0.6848803   -3.4130353    0.9411619 
N    -3.4418841   -1.6790356   -1.1531531 
C    -2.3637480   -1.9476408   -0.3325660 
N    -2.0484894   -3.2475084   -0.0971985 
C    -2.7706953   -4.2286771   -0.6512787 
C    -3.8860773   -3.9566070   -1.5004015 
C    -4.1878897   -2.6563012   -1.7251596 
O    -1.7324263   -0.9969262    0.1519221 
N    -2.4211892   -5.4860821   -0.3894885 
H    -2.9434084   -6.2488109   -0.7903008 
H    -1.6255536   -5.6836092    0.2162374 
H    -4.4678427   -4.7499566   -1.9474739 
H    -5.0114236   -2.3354579   -2.3507638 
H    -3.6491231   -0.6990767   -1.3075687 
N     1.5909125   -5.0054684    2.6686714 
C     0.5004939   -4.8485670    1.8388898 
N     0.1606828   -3.5344458    1.5849485 
C     0.8101878   -2.4568188    2.0837307 
C     1.9302130   -2.6815324    2.9359417 
C     2.2815612   -3.9620196    3.1987244 
O    -0.1098963   -5.7922091    1.3706823 
N     0.3806529   -1.2609572    1.7607997 
H     0.8638439   -0.4549437    2.1318906 
H    -0.4508565   -1.1324324    1.1277575 
H     2.4804587   -1.8535042    3.3582170 
H     3.1191054   -4.2183460    3.8358452 
H     1.8551858   -5.9643857    2.8660558 
