  27
 
Ag   -0.9412050   -3.4646950    0.7235970
N    -3.9496160   -1.6895510   -1.5184700
C    -2.8611180   -1.9588090   -0.7043890
N    -2.5733890   -3.2971440   -0.5039230
C    -3.3000850   -4.2670890   -1.0627570
C    -4.4136700   -3.9652480   -1.8986960
C    -4.7010740   -2.6560380   -2.0979310
O    -2.2008360   -1.0653920   -0.1975120
N    -2.9606620   -5.5346650   -0.8216440
H    -3.4872140   -6.2935380   -1.2246010
H    -2.1719560   -5.7518110   -0.2255090
H    -5.0071650   -4.7430970   -2.3566760
H    -5.5255610   -2.3215460   -2.7153600
H    -4.1584110   -0.7078350   -1.6615660
N     2.1400690   -4.9658490    3.0984980
C     1.0523340   -4.8188390    2.2505120
N     0.6869090   -3.5156690    1.9627600
C     1.3381330   -2.4674300    2.4717930
C     2.4491730   -2.6456180    3.3460280
C     2.8143680   -3.9193800    3.6312050
O     0.4593220   -5.7800770    1.7907230
N     0.9261360   -1.2409530    2.1442720
H     1.3953700   -0.4288090    2.5132760
H     0.1357300   -1.1076270    1.5240670
H     2.9815110   -1.8051590    3.7669130
H     3.6438320   -4.1611890    4.2843260
H     2.4069890   -5.9212980    3.3071870
