27
Energy =
 Ag                 4.14250330   -1.95747080   -1.97289510
 N                  4.18837450    2.04419930   -0.92114570
 C                  3.90765270    0.77731480   -1.39527900
 N                  4.84713370   -0.19744450   -1.13576630
 C                  5.97040420    0.07025610   -0.46604870
 C                  6.24236040    1.38442830    0.01351140
 C                  5.31821370    2.34160090   -0.23892720
 O                  2.87229810    0.54762380   -2.01231570
 N                  6.84543760   -0.91218770   -0.26372010
 H                  6.49044920   -1.76077870   -0.65599113
 H                  6.98917961   -1.03352057    0.71842885
 H                  7.14797020    1.61360040    0.55464600
 H                  5.43448530    3.36796190    0.08445110
 H                  3.49123180    2.75312710   -1.11656780
 N                  2.99617090   -5.70290120   -3.50961160
 C                  3.67528200   -4.66996730   -2.88044250
 N                  3.06997490   -3.43249190   -2.93201840
 C                  1.90093160   -3.23167060   -3.54629430
 C                  1.22211640   -4.31099130   -4.18474320
 C                  1.81202620   -5.52999390   -4.13867170
 O                  4.74223410   -4.85360830   -2.31764650
 N                  1.38313660   -2.00493260   -3.56131140
 H                  1.97501379   -1.38693872   -3.04385129
 H                  1.31164730   -1.68483854   -4.50599604
 H                  0.27752850   -4.16828640   -4.68749220
 H                  1.37242560   -6.40782050   -4.59473900
 H                  3.44257210   -6.61140050   -3.47073560
