27
Cytosine
 N                  4.18837450    2.04419930   -0.92114570
 C                  3.90765270    0.77731480   -1.39527900
 N                  4.84713370   -0.19744450   -1.13576630
 C                  5.97040420    0.07025610   -0.46604870
 C                  6.24236040    1.38442830    0.01351140
 C                  5.31821370    2.34160090   -0.23892720
 O                  2.87229810    0.54762380   -2.01231570
 N                  6.84543760   -0.91218770   -0.26372010
 H                  6.35976123   -1.78437722   -0.20537702
 H                  7.33944455   -0.74798050    0.59009084
 H                  7.14797020    1.61360040    0.55464600
 H                  5.43448530    3.36796190    0.08445110
 H                  3.49123180    2.75312710   -1.11656780
