27
Energy =
Ag    4.0699179   -1.9087714   -1.9737390 
N     4.2423293    2.1005641   -0.9828248 
C     3.9182793    0.8448415   -1.4650526 
N     4.7902724   -0.1768413   -1.1354843 
C     5.8794652    0.0417044   -0.3952258 
C     6.1937080    1.3436340    0.0906148 
C     5.3416116    2.3469104   -0.2301556 
O     2.9161824    0.6598667   -2.1427510 
N     6.6757119   -0.9910584   -0.1162030 
H     6.4549842   -1.9164197   -0.4595808 
H     7.5070472   -0.8652944    0.4396298 
H     7.0731070    1.5286213    0.6900973 
H     5.4893273    3.3712198    0.0890206 
H     3.5988199    2.8447264   -1.2279990 
N     3.0438641   -5.6962983   -3.4562367 
C     3.6829131   -4.6418491   -2.8177961 
N     3.0686976   -3.4085624   -2.9402459 
C     1.9354347   -3.2408377   -3.6268155 
C     1.3004504   -4.3411515   -4.2729288 
C     1.8950418   -5.5538861   -4.1585344 
O     4.7163448   -4.7973622   -2.1921061 
N     1.4058196   -2.0177586   -3.6972132 
H     1.8474287   -1.2247053   -3.2409689 
H     0.5511475   -1.8654572   -4.2093383 
H     0.3839057   -4.2198083   -4.8315168 
H     1.4920149   -6.4511040   -4.6120779 
H     3.4938355   -6.6001541   -3.3665290 
