12
Coordinates from ORCA-job 1_Cu2C2H6S2
  Cu  -5.26279606774293      7.08976189232796      4.83212480294907
  S   -1.13592501521766      7.26566336304717      6.96098018139214
  C   -1.67159060544100      7.94312394255085      8.57096435363544
  H   -2.40503816444216      7.29191674559683      9.05559133500734
  H   -2.13715567647427      8.92662397081985      8.45772625817809
  H   -0.81732249648110      8.05197123376710      9.25056078261237
  S   -7.26526743437965      7.09061010105368      3.79414510623937
  C   -7.16250934458439      8.67642813090156      2.89271686083498
  H   -8.07274095545773      8.84941769092021      2.30532666873568
  H   -6.31156514139532      8.69218819604324      2.20530253379023
  H   -7.04040356683984      9.52041426630478      3.57799920288830
  Cu  -3.11742553154389      7.16901146666675      5.88789891373692
