13
Coordinates from ORCA-job 2_Cu3C2H6S2 E -5794.064498914996
  Cu     -6.396354      6.676873      4.512935
  Cu     -3.994341      7.335361      3.648627
  S      -8.721449      6.151776      5.200069
  C      -9.497061      7.809129      5.140892
  H     -10.396324      7.816602      5.757643
  H      -9.777146      8.037637      4.111546
  H      -8.825046      8.587742      5.497833
  Cu     -7.729557      6.086018      7.401453
  S      -6.849247      5.978710      9.602281
  H      -5.037395      7.504993      8.961873
  H      -4.587674      5.824257      8.663027
  C      -5.110659      6.488828      9.351936
  H      -4.592701      6.456279     10.313337
13
Coordinates from ORCA-job 2_Cu3C2H6S2 E -5794.071307901811
  Cu     -6.403729      6.649178      4.531093
  Cu     -4.026410      7.340673      3.679836
  S      -8.693690      6.142737      5.216848
  C      -9.451202      7.805647      5.179121
  H     -10.351832      7.811229      5.793409
  H      -9.725172      8.048889      4.151935
  H      -8.771720      8.570739      5.548927
  Cu     -7.731066      6.047336      7.391145
  S      -6.877195      5.978923      9.562747
  H      -5.087165      7.518129      8.902169
  H      -4.615033      5.838661      8.629265
  C      -5.147299      6.507122      9.306402
  H      -4.633441      6.494943     10.270555
13
Coordinates from ORCA-job 2_Cu3C2H6S2 E -5794.084690668692
  Cu     -6.413174      6.644435      4.579786
  Cu     -4.080541      7.332104      3.747800
  S      -8.617424      6.132219      5.271348
  C      -9.380155      7.790600      5.234607
  H     -10.283635      7.787931      5.844365
  H      -9.648712      8.033049      4.205984
  H      -8.704272      8.555188      5.610788
  Cu     -7.739010      6.047254      7.396904
  S      -6.928239      5.985515      9.489348
  H      -5.154771      7.537668      8.819484
  H      -4.669541      5.861190      8.548383
  C      -5.204671      6.527028      9.225152
  H      -4.690808      6.520024     10.189504
13
Coordinates from ORCA-job 2_Cu3C2H6S2 E -5794.094328547388
  Cu     -6.421757      6.633305      4.620719
  Cu     -4.145678      7.325564      3.805058
  S      -8.541295      6.121633      5.323237
  C      -9.311681      7.778813      5.286509
  H     -10.217851      7.769350      5.892074
  H      -9.576179      8.022357      4.256982
  H      -8.639961      8.543916      5.668604
  Cu     -7.744096      6.035965      7.398435
  S      -6.978691      5.988876      9.414077
  H      -5.217028      7.556127      8.744000
  H      -4.714598      5.883560      8.480655
  C      -5.257942      6.546718      9.153235
  H      -4.748196      6.548021     10.119866
13
Coordinates from ORCA-job 2_Cu3C2H6S2 E -5794.098653256605
  Cu     -6.435092      6.622591      4.657154
  Cu     -4.226693      7.313541      3.847194
  S      -8.467162      6.117619      5.368354
  C      -9.253068      7.771572      5.326553
  H     -10.162751      7.752786      5.926500
  H      -9.512911      8.014110      4.295522
  H      -8.589262      8.540431      5.714721
  Cu     -7.742376      6.024113      7.391215
  S      -7.019315      5.985771      9.340887
  H      -5.265253      7.573006      8.691402
  H      -4.742286      5.906468      8.432107
  C      -5.298938      6.563169      9.099833
  H      -4.799847      6.569029     10.072012
13
Coordinates from ORCA-job 2_Cu3C2H6S2 E -5794.099457260251
  Cu     -6.447303      6.604436      4.651204
  Cu     -4.262713      7.272521      3.826813
  S      -8.458273      6.122059      5.362573
  C      -9.238848      7.780962      5.336481
  H     -10.155968      7.755513      5.924773
  H      -9.484670      8.041220      4.306351
  H      -8.576858      8.540381      5.745925
  Cu     -7.730369      5.990721      7.367844
  S      -7.009840      5.938064      9.316631
  H      -5.304084      7.595288      8.712785
  H      -4.722794      5.952342      8.428805
  C      -5.306622      6.577805      9.103274
  H      -4.816612      6.582893     10.079992
13
Coordinates from ORCA-job 2_Cu3C2H6S2 E -5794.100723882560
  Cu     -6.471730      6.664693      4.675572
  Cu     -4.342195      7.202991      3.787474
  S      -8.428640      6.172791      5.369984
  C      -9.294921      7.788370      5.266840
  H     -10.227786      7.729302      5.827462
  H      -9.518991      8.004908      4.222223
  H      -8.685767      8.591374      5.675055
  Cu     -7.695778      6.107289      7.358342
  S      -6.955788      5.912306      9.318936
  H      -5.226644      7.591065      8.863113
  H      -4.658461      5.967258      8.463748
  C      -5.242501      6.547570      9.177285
  H      -4.765753      6.474289     10.157416
13
Coordinates from ORCA-job 2_Cu3C2H6S2 E -5794.100922488768
  Cu     -6.479128      6.565861      4.634256
  Cu     -4.427905      7.242238      3.739636
  S      -8.448697      6.163509      5.324186
  C      -9.264691      7.809774      5.287340
  H     -10.193507      7.759658      5.855880
  H      -9.491696      8.070954      4.253573
  H      -8.625996      8.577949      5.717550
  Cu     -7.663177      5.962421      7.291790
  S      -6.957727      5.898342      9.309161
  H      -5.257522      7.600133      8.833389
  H      -4.635691      5.974908      8.528384
  C      -5.257287      6.571917      9.195608
  H      -4.811931      6.556542     10.192700
13
Coordinates from ORCA-job 2_Cu3C2H6S2 E -5794.101385747793
  Cu     -6.461888      6.639897      4.643254
  Cu     -4.353806      7.153821      3.738810
  S      -8.449861      6.184730      5.324661
  C      -9.302170      7.808014      5.273802
  H     -10.232409      7.739794      5.837671
  H      -9.529758      8.055232      4.236751
  H      -8.684392      8.594878      5.700540
  Cu     -7.658020      6.027506      7.306258
  S      -6.934852      5.873890      9.313342
  H      -5.254479      7.606093      8.887375
  H      -4.626298      5.999914      8.503739
  C      -5.243088      6.563022      9.203873
  H      -4.783934      6.507412     10.193377
13
Coordinates from ORCA-job 2_Cu3C2H6S2 E -5794.101401928902
  Cu     -6.462364      6.600163      4.667993
  Cu     -4.392524      7.256707      3.772237
  S      -8.461188      6.175796      5.361830
  C      -9.306156      7.796606      5.245479
  H     -10.238979      7.753475      5.807395
  H      -9.528351      8.002695      4.198407
  H      -8.687826      8.598088      5.643051
  Cu     -7.672922      6.108094      7.348427
  S      -6.941462      5.919503      9.338611
  H      -5.199917      7.585760      8.897289
  H      -4.643539      5.958879      8.491133
  C      -5.226210      6.540372      9.205101
  H      -4.753517      6.458068     10.186500
13
Coordinates from ORCA-job 2_Cu3C2H6S2 E -5794.101598552256
  Cu     -6.453396      6.622870      4.663485
  Cu     -4.362829      7.180268      3.776925
  S      -8.454031      6.181458      5.341608
  C      -9.301832      7.801935      5.268829
  H     -10.233319      7.742229      5.831487
  H      -9.526710      8.033688      4.227743
  H      -8.684559      8.594793      5.684922
  Cu     -7.660023      6.062733      7.320828
  S      -6.941668      5.892773      9.312972
  H      -5.241012      7.606355      8.893118
  H      -4.641865      5.997760      8.475494
  C      -5.242356      6.557945      9.191710
  H      -4.771354      6.479399     10.174330
13
Coordinates from ORCA-job 2_Cu3C2H6S2 E -5794.101690444258
  Cu     -6.444304      6.623910      4.668176
  Cu     -4.354003      7.145306      3.791960
  S      -8.456798      6.183819      5.329677
  C      -9.301781      7.805881      5.277862
  H     -10.232094      7.741425      5.842011
  H      -9.529137      8.049918      4.239975
  H      -8.682994      8.593859      5.701005
  Cu     -7.650033      6.040080      7.303988
  S      -6.938883      5.877821      9.298631
  H      -5.260598      7.617456      8.894112
  H      -4.639058      6.020633      8.464794
  C      -5.248431      6.566708      9.184427
  H      -4.776840      6.487390     10.166835
13
Coordinates from ORCA-job 2_Cu3C2H6S2 E -5794.101728767241
  Cu     -6.437521      6.618097      4.683864
  Cu     -4.348702      7.138987      3.828497
  S      -8.464081      6.181302      5.325574
  C      -9.303121      7.806532      5.279931
  H     -10.232758      7.744437      5.845535
  H      -9.531896      8.054784      4.243237
  H      -8.681388      8.591810      5.703904
  Cu     -7.649215      6.033710      7.298593
  S      -6.938444      5.877254      9.291115
  H      -5.264273      7.621158      8.885532
  H      -4.640635      6.026939      8.450493
  C      -5.249201      6.569701      9.173316
  H      -4.773719      6.489496     10.153861
13
Coordinates from ORCA-job 2_Cu3C2H6S2 E -5794.101788790078
  Cu     -6.433588      6.609943      4.712018
  Cu     -4.342515      7.145720      3.890671
  S      -8.476585      6.175036      5.323512
  C      -9.306174      7.805842      5.277842
  H     -10.235928      7.750270      5.844033
  H      -9.534586      8.056319      4.241488
  H      -8.679890      8.587785      5.701401
  Cu     -7.655881      6.032805      7.297961
  S      -6.937093      5.883313      9.286081
  H      -5.259730      7.621019      8.866056
  H      -4.643223      6.024226      8.431311
  C      -5.245705      6.570322      9.156707
  H      -4.764058      6.491604     10.134371
13
Coordinates from ORCA-job 2_Cu3C2H6S2 E -5794.101886479410
  Cu     -6.432701      6.598579      4.771338
  Cu     -4.330660      7.163270      4.018715
  S      -8.499983      6.161579      5.321570
  C      -9.310910      7.803310      5.272754
  H     -10.242883      7.760129      5.836507
  H      -9.534060      8.058020      4.236170
  H      -8.676578      8.577636      5.698402
  Cu     -7.674707      6.033341      7.300226
  S      -6.933531      5.898307      9.278721
  H      -5.248220      7.618519      8.821008
  H      -4.649651      6.013592      8.392746
  C      -5.237510      6.570669      9.121724
  H      -4.743561      6.497254     10.093569
13
Coordinates from ORCA-job 2_Cu3C2H6S2 E -5794.101982739592
  Cu     -6.438589      6.589095      4.845951
  Cu     -4.316987      7.182568      4.178979
  S      -8.526228      6.145572      5.320086
  C      -9.314590      7.799994      5.267472
  H     -10.251575      7.769860      5.823808
  H      -9.525931      8.061133      4.229975
  H      -8.672104      8.563429      5.700391
  Cu     -7.700357      6.032345      7.303569
  S      -6.927231      5.916254      9.270529
  H      -5.236166      7.615237      8.761023
  H      -4.658470      6.000104      8.344247
  C      -5.227836      6.571816      9.076443
  H      -4.718890      6.506798     10.040979
13
Coordinates from ORCA-job 2_Cu3C2H6S2 E -5794.102060815579
  Cu     -6.448199      6.586639      4.894524
  Cu     -4.305655      7.189387      4.284600
  S      -8.540550      6.137393      5.320862
  C      -9.316246      7.798479      5.265234
  H     -10.258847      7.773883      5.812249
  H      -9.514825      8.063886      4.226370
  H      -8.671149      8.554494      5.706939
  Cu     -7.717598      6.029825      7.305524
  S      -6.920648      5.924994      9.265767
  H      -5.231542      7.613723      8.720000
  H      -4.664203      5.993228      8.311143
  C      -5.222116      6.573471      9.045304
  H      -4.703376      6.514803     10.004939
13
Coordinates from ORCA-job 2_Cu3C2H6S2 E -5794.102109950612
  Cu     -6.455502      6.590477      4.908095
  Cu     -4.295447      7.181748      4.315850
  S      -8.541550      6.139808      5.324287
  C      -9.318997      7.799396      5.264818
  H     -10.266140      7.771764      5.803662
  H      -9.508369      8.064200      4.224201
  H      -8.678004      8.555154      5.712630
  Cu     -7.720722      6.029164      7.305428
  S      -6.915531      5.923639      9.265606
  H      -5.231786      7.614261      8.709898
  H      -4.664881      5.994257      8.299475
  C      -5.220055      6.574275      9.035807
  H      -4.697968      6.516061      9.993695
13
Coordinates from ORCA-job 2_Cu3C2H6S2 E -5794.102129896401
  Cu     -6.456358      6.592939      4.912178
  Cu     -4.286918      7.170539      4.327432
  S      -8.540428      6.144862      5.326895
  C      -9.323491      7.800791      5.264079
  H     -10.272952      7.768989      5.798531
  H      -9.508897      8.063318      4.222215
  H      -8.687512      8.559468      5.714026
  Cu     -7.716701      6.030887      7.303682
  S      -6.912533      5.921202      9.265305
  H      -5.231488      7.616034      8.712582
  H      -4.664469      5.998601      8.293224
  C      -5.218832      6.574459      9.033436
  H      -4.694373      6.512118      9.989866
13
Coordinates from ORCA-job 2_Cu3C2H6S2 E -5794.102151674775
  Cu     -6.454409      6.592057      4.915684
  Cu     -4.276735      7.155714      4.341273
  S      -8.540439      6.150908      5.329124
  C      -9.329440      7.802941      5.262890
  H     -10.279945      7.767609      5.795249
  H      -9.513712      8.062409      4.220057
  H      -8.698059      8.565629      5.712589
  Cu     -7.709836      6.033050      7.300673
  S      -6.908856      5.915586      9.263368
  H      -5.233032      7.619648      8.720463
  H      -4.663395      6.007799      8.284741
  C      -5.217635      6.575109      9.031649
  H      -4.689462      6.505747      9.985692
13
Coordinates from ORCA-job 2_Cu3C2H6S2 E -5794.102156866714
  Cu     -6.452289      6.589733      4.916721
  Cu     -4.271741      7.148550      4.349526
  S      -8.541155      6.153607      5.329542
  C      -9.332813      7.804058      5.261661
  H     -10.282375      7.768179      5.795703
  H      -9.519543      8.061513      4.218743
  H      -8.702410      8.569096      5.708863
  Cu     -7.706098      6.034797      7.298963
  S      -6.906985      5.912123      9.261379
  H      -5.234011      7.621998      8.727074
  H      -4.662634      6.014017      8.279941
  C      -5.216684      6.575437      9.031447
  H      -4.686215      6.501097      9.983891
13
Coordinates from ORCA-job 2_Cu3C2H6S2 E -5794.102147662841
  Cu     -6.451285      6.588090      4.916364
  Cu     -4.269535      7.145283      4.354280
  S      -8.541735      6.154481      5.328825
  C      -9.334375      7.804493      5.260828
  H     -10.282419      7.769051      5.797621
  H      -9.524348      8.060999      4.218246
  H      -8.703284      8.570512      5.705475
  Cu     -7.704796      6.035614      7.297884
  S      -6.906064      5.910474      9.259612
  H      -5.234525      7.623456      8.731463
  H      -4.662096      6.017695      8.277624
  C      -5.215951      6.575732      9.031785
  H      -4.684542      6.498324      9.983445
13
Coordinates from ORCA-job 2_Cu3C2H6S2 E -5794.102142811389
  Cu     -6.451025      6.586978      4.915048
  Cu     -4.267729      7.142293      4.358233
  S      -8.542112      6.154992      5.327508
  C      -9.335441      7.804734      5.260252
  H     -10.281735      7.769756      5.800167
  H      -9.528943      8.060650      4.218165
  H      -8.703161      8.571275      5.702379
  Cu     -7.704240      6.036002      7.296715
  S      -6.905279      5.909400      9.257704
  H      -5.234937      7.624987      8.735737
  H      -4.661628      6.021157      8.275801
  C      -5.215270      6.576209      9.032301
  H      -4.683456      6.495774      9.983442
13
Coordinates from ORCA-job 2_Cu3C2H6S2 E -5794.102163740888
  Cu     -6.451441      6.586134      4.912949
  Cu     -4.265894      7.138592      4.362170
  S      -8.542384      6.155411      5.325746
  C      -9.336193      7.804941      5.260057
  H     -10.280779      7.770206      5.802960
  H      -9.533000      8.060611      4.218525
  H      -8.702573      8.571635      5.700029
  Cu     -7.703938      6.035881      7.295221
  S      -6.904402      5.908384      9.255575
  H      -5.235586      7.626932      8.740227
  H      -4.661199      6.025198      8.273822
  C      -5.214746      6.577034      9.032714
  H      -4.682819      6.493248      9.983456
