19
Coordinates from ORCA-job 3_Cu4C3H9S3 E -7868.410004570909
  Cu     -5.369518      6.359996      3.526155
  S      -1.958741      7.227077      7.105868
  C      -3.000945      8.308921      8.150339
  H      -3.214488      7.799260      9.091237
  H      -3.950293      8.544901      7.666968
  H      -2.481244      9.241988      8.372517
  S      -6.064083      7.674610      1.415829
  C      -7.299863      8.781180      2.187640
  H      -7.267290      9.770219      1.728429
  H      -7.131797      8.889190      3.260403
  H      -8.296845      8.363376      2.038811
  Cu     -3.827195      6.204423      5.647182
  Cu     -3.964879      8.568793      2.360890
  Cu     -2.096088      8.379986      4.930833
  S      -1.826427      9.669233      2.861002
  C      -0.677467      8.577732      1.942969
  H      -0.704199      8.833477      0.883132
  H       0.337348      8.725599      2.313987
  H      -0.938542      7.525944      2.053597
19
Coordinates from ORCA-job 3_Cu4C3H9S3 E -7868.421956149796
  Cu     -5.340811      6.370251      3.519828
  S      -1.968356      7.235075      7.054346
  C      -3.023668      8.312588      8.085453
  H      -3.243010      7.803701      9.034937
  H      -3.978758      8.538932      7.590874
  H      -2.512566      9.259422      8.310859
  S      -6.017903      7.676764      1.441643
  C      -7.245816      8.776258      2.229753
  H      -7.218033      9.778756      1.779403
  H      -7.069870      8.872774      3.310445
  H      -8.252690      8.359700      2.083642
  Cu     -3.811658      6.215981      5.622860
  Cu     -3.957287      8.570680      2.377299
  Cu     -2.109429      8.383841      4.918601
  S      -1.858157      9.666227      2.883734
  C      -0.714209      8.571201      1.969236
  H      -0.738934      8.824774      0.900582
  H       0.309389      8.716158      2.340965
  H      -0.980789      7.512823      2.083326
19
Coordinates from ORCA-job 3_Cu4C3H9S3 E -7868.437889038369
  Cu     -5.290979      6.385510      3.511158
  S      -1.983569      7.250638      6.978879
  C      -3.061256      8.319775      7.991068
  H      -3.289241      7.814956      8.944383
  H      -4.016149      8.532188      7.483281
  H      -2.567532      9.278297      8.221569
  S      -5.950503      7.683615      1.480843
  C      -7.168595      8.770562      2.295477
  H      -7.150455      9.784016      1.861537
  H      -6.981202      8.851485      3.378651
  H      -8.181516      8.357727      2.156674
  Cu     -3.787051      6.233687      5.579667
  Cu     -3.947380      8.573575      2.397918
  Cu     -2.126029      8.389094      4.902894
  S      -1.906321      9.655448      2.918024
  C      -0.765599      8.558718      2.005795
  H      -0.787261      8.808791      0.933125
  H       0.262463      8.699838      2.375695
  H      -1.034380      7.497985      2.121150
19
Coordinates from ORCA-job 3_Cu4C3H9S3 E -7868.451506112879
  Cu     -5.237166      6.404019      3.505579
  S      -1.999669      7.267518      6.905352
  C      -3.099523      8.327212      7.902613
  H      -3.334515      7.825164      8.855296
  H      -4.051105      8.527197      7.384445
  H      -2.622336      9.292494      8.137781
  S      -5.885199      7.691869      1.520376
  C      -7.097178      8.765663      2.360021
  H      -7.088412      9.785192      1.941293
  H      -6.899817      8.833041      3.441993
  H      -8.111508      8.354886      2.228289
  Cu     -3.763906      6.255182      5.532123
  Cu     -3.937913      8.576517      2.416768
  Cu     -2.141072      8.394124      4.888142
  S      -1.953068      9.641685      2.951169
  C      -0.812638      8.544491      2.039081
  H      -0.832224      8.792279      0.966244
  H       0.216020      8.683203      2.407049
  H      -1.081326      7.484170      2.154176
19
Coordinates from ORCA-job 3_Cu4C3H9S3 E -7868.461963687403
  Cu     -5.179647      6.428247      3.503050
  S      -2.017622      7.284852      6.835007
  C      -3.139582      8.334112      7.820613
  H      -3.380912      7.831580      8.770105
  H      -4.086619      8.523520      7.292599
  H      -2.676385      9.303438      8.061116
  S      -5.823385      7.700738      1.560723
  C      -7.032346      8.760787      2.424180
  H      -7.032977      9.783947      2.017725
  H      -6.824939      8.816648      3.503801
  H      -8.045712      8.348603      2.299372
  Cu     -3.742023      6.282900      5.480882
  Cu     -3.927261      8.579731      2.434900
  Cu     -2.155094      8.399401      4.872522
  S      -1.994762      9.627148      2.980545
  C      -0.853411      8.528804      2.067629
  H      -0.872124      8.775467      0.995717
  H       0.174520      8.666269      2.434589
  H      -1.122275      7.469715      2.182712
19
Coordinates from ORCA-job 3_Cu4C3H9S3 E -7868.468728073048
  Cu     -5.117647      6.461376      3.502523
  S      -2.038248      7.302409      6.770149
  C      -3.183683      8.339674      7.745326
  H      -3.432206      7.832720      8.689688
  H      -4.125157      8.519957      7.205711
  H      -2.732447      9.311786      7.993178
  S      -5.767338      7.710208      1.601961
  C      -6.974996      8.755038      2.489900
  H      -6.986350      9.780929      2.092984
  H      -6.755445      8.800763      3.566907
  H      -7.986153      8.337252      2.373010
  Cu     -3.719881      6.319947      5.426027
  Cu     -3.913620      8.583840      2.452774
  Cu     -2.167943      8.405756      4.854291
  S      -2.026744      9.614063      3.002807
  C      -0.885440      8.511474      2.089528
  H      -0.904190      8.757057      1.018156
  H       0.141857      8.647696      2.456416
  H      -1.156926      7.453959      2.206453
19
Coordinates from ORCA-job 3_Cu4C3H9S3 E -7868.471892280253
  Cu     -5.042054      6.502214      3.492908
  S      -2.062108      7.327854      6.718146
  C      -3.245804      8.344984      7.673324
  H      -3.504556      7.830421      8.610629
  H      -4.178651      8.508828      7.113795
  H      -2.814258      9.323221      7.931073
  S      -5.723553      7.728841      1.643024
  C      -6.926295      8.748055      2.571618
  H      -6.952955      9.779708      2.191264
  H      -6.686372      8.775548      3.644925
  H      -7.934663      8.321099      2.465665
  Cu     -3.684424      6.364876      5.362317
  Cu     -3.891919      8.594379      2.467914
  Cu     -2.175390      8.418745      4.830061
  S      -2.034189      9.607371      3.007553
  C      -0.900672      8.488228      2.098652
  H      -0.919220      8.728329      1.026152
  H       0.127340      8.618827      2.465240
  H      -1.182810      7.434377      2.223527
19
Coordinates from ORCA-job 3_Cu4C3H9S3 E -7868.473542792639
  Cu     -4.963655      6.523190      3.455549
  S      -2.080894      7.368689      6.706066
  C      -3.326459      8.352284      7.619022
  H      -3.595396      7.833559      8.551464
  H      -4.246940      8.479984      7.029499
  H      -2.934011      9.345857      7.881716
  S      -5.714771      7.767835      1.668188
  C      -6.900246      8.743333      2.665718
  H      -6.943021      9.787962      2.323371
  H      -6.630769      8.731673      3.732757
  H      -7.907630      8.310960      2.570134
  Cu     -3.624129      6.387893      5.302380
  Cu     -3.864946      8.618629      2.469458
  Cu     -2.167289      8.444335      4.806597
  S      -1.996722      9.615155      2.980928
  C      -0.886356      8.459731      2.086186
  H      -0.902817      8.685279      1.010196
  H       0.144530      8.575708      2.450503
  H      -1.191036      7.413847      2.228054
19
Coordinates from ORCA-job 3_Cu4C3H9S3 E -7868.476158163705
  Cu     -4.898988      6.572633      3.431082
  S      -2.094810      7.399452      6.710517
  C      -3.388344      8.350848      7.592300
  H      -3.666389      7.822182      8.516245
  H      -4.295427      8.453451      6.977084
  H      -3.025658      9.353111      7.863721
  S      -5.720612      7.798681      1.682770
  C      -6.894504      8.734438      2.732474
  H      -6.954563      9.786396      2.416919
  H      -6.598073      8.695655      3.792036
  H      -7.897576      8.290495      2.647124
  Cu     -3.577382      6.439183      5.254859
  Cu     -3.836884      8.639718      2.475309
  Cu     -2.163561      8.467428      4.780365
  S      -1.944903      9.634239      2.944304
  C      -0.864961      8.434358      2.068555
  H      -0.879376      8.641464      0.988958
  H       0.168550      8.531818      2.430502
  H      -1.199095      7.400356      2.232663
19
Coordinates from ORCA-job 3_Cu4C3H9S3 E -7868.478299937302
  Cu     -4.853106      6.628418      3.413168
  S      -2.097222      7.419618      6.730899
  C      -3.423143      8.343923      7.593547
  H      -3.704995      7.806202      8.510681
  H      -4.320533      8.429395      6.961762
  H      -3.082609      9.351781      7.871760
  S      -5.738903      7.821226      1.680449
  C      -6.906911      8.725158      2.764364
  H      -6.980362      9.781644      2.468336
  H      -6.592431      8.668277      3.817867
  H      -7.905469      8.271037      2.684219
  Cu     -3.541916      6.496016      5.223745
  Cu     -3.814493      8.654354      2.485701
  Cu     -2.166709      8.484351      4.757163
  S      -1.890153      9.659661      2.905849
  C      -0.843460      8.415162      2.051391
  H      -0.855388      8.602085      0.968305
  H       0.192485      8.492471      2.410586
  H      -1.207238      7.395128      2.237997
19
Coordinates from ORCA-job 3_Cu4C3H9S3 E -7868.479252494393
  Cu     -4.796432      6.654569      3.375513
  S      -2.101068      7.456043      6.742143
  C      -3.474028      8.343919      7.567697
  H      -3.757090      7.806934      8.484985
  H      -4.360526      8.393772      6.916758
  H      -3.173294      9.365638      7.841659
  S      -5.748125      7.859302      1.683915
  C      -6.898886      8.718379      2.820704
  H      -6.980526      9.785020      2.565622
  H      -6.565067      8.624618      3.865733
  H      -7.897800      8.264592      2.742028
  Cu     -3.487325      6.522167      5.184632
  Cu     -3.793952      8.676420      2.493995
  Cu     -2.167135      8.507800      4.737165
  S      -1.844255      9.679154      2.874183
  C      -0.831729      8.392929      2.041421
  H      -0.840433      8.559173      0.954790
  H       0.206921      8.449139      2.397152
  H      -1.221805      7.386336      2.247694
19
Coordinates from ORCA-job 3_Cu4C3H9S3 E -7868.479963599177
  Cu     -4.738077      6.664265      3.329345
  S      -2.106493      7.500501      6.746047
  C      -3.530198      8.347186      7.525520
  H      -3.814579      7.816237      8.446082
  H      -4.403505      8.353678      6.854829
  H      -3.276741      9.384516      7.788821
  S      -5.750417      7.904768      1.691989
  C      -6.877127      8.712495      2.887473
  H      -6.963267      9.789712      2.682876
  H      -6.523354      8.574121      3.921136
  H      -7.878895      8.264514      2.809796
  Cu     -3.425748      6.531118      5.144245
  Cu     -3.775244      8.703311      2.501092
  Cu     -2.166032      8.535464      4.719908
  S      -1.806973      9.695630      2.849136
  C      -0.829094      8.370356      2.038128
  H      -0.834609      8.515781      0.948338
  H       0.211886      8.404922      2.390265
  H      -1.244088      7.377330      2.262763
19
Coordinates from ORCA-job 3_Cu4C3H9S3 E -7868.480659389527
  Cu     -4.679633      6.667724      3.278587
  S      -2.110468      7.550557      6.743118
  C      -3.584477      8.351101      7.473153
  H      -3.870081      7.828865      8.398399
  H      -4.442381      8.310298      6.783838
  H      -3.382515      9.403274      7.721551
  S      -5.745534      7.955376      1.701437
  C      -6.845257      8.706150      2.955712
  H      -6.933333      9.792321      2.807052
  H      -6.472203      8.519420      3.975035
  H      -7.850955      8.266748      2.878699
  Cu     -3.360485      6.533328      5.104031
  Cu     -3.757855      8.734768      2.510472
  Cu     -2.166832      8.567706      4.703774
  S      -1.777244      9.713410      2.830093
  C      -0.837852      8.347317      2.043130
  H      -0.840331      8.469579      0.950431
  H       0.204957      8.357581      2.391553
  H      -1.280075      7.370385      2.287723
19
Coordinates from ORCA-job 3_Cu4C3H9S3 E -7868.481459559299
  Cu     -4.621565      6.668837      3.225709
  S      -2.111712      7.606993      6.730372
  C      -3.634262      8.354986      7.412047
  H      -3.919173      7.842041      8.342748
  H      -4.475030      8.263464      6.706557
  H      -3.486950      9.420188      7.642316
  S      -5.730143      8.011609      1.712164
  C      -6.803814      8.699058      3.022420
  H      -6.891880      9.791681      2.933670
  H      -6.413533      8.460855      4.024509
  H      -7.813517      8.269067      2.943968
  Cu     -3.293650      6.532899      5.064166
  Cu     -3.741296      8.771002      2.524122
  Cu     -2.171298      8.605152      4.687794
  S      -1.755852      9.733449      2.817655
  C      -0.859802      8.322975      2.057596
  H      -0.860023      8.419409      0.962297
  H       0.184047      8.305949      2.402661
  H      -1.333104      7.366290      2.325017
19
Coordinates from ORCA-job 3_Cu4C3H9S3 E -7868.482057097721
  Cu     -4.564250      6.677094      3.178282
  S      -2.118939      7.666006      6.711673
  C      -3.686380      8.358251      7.349343
  H      -3.969172      7.850306      8.283621
  H      -4.507464      8.217724      6.628622
  H      -3.591044      9.432878      7.562911
  S      -5.710360      8.069365      1.731012
  C      -6.761450      8.691024      3.091630
  H      -6.850177      9.786787      3.059423
  H      -6.354128      8.403349      4.073960
  H      -7.773259      8.266146      3.010182
  Cu     -3.231503      6.539991      5.024434
  Cu     -3.723915      8.810918      2.538100
  Cu     -2.175089      8.646420      4.671780
  S      -1.732730      9.750433      2.803764
  C      -0.880486      8.295938      2.070604
  H      -0.880435      8.368261      0.973309
  H       0.163349      8.253122      2.413907
  H      -1.385123      7.361893      2.361233
19
Coordinates from ORCA-job 3_Cu4C3H9S3 E -7868.482450576299
  Cu     -4.512234      6.692313      3.139101
  S      -2.134891      7.721897      6.696227
  C      -3.741182      8.360482      7.294397
  H      -4.021589      7.853620      8.230155
  H      -4.540792      8.176746      6.559111
  H      -3.691502      9.440895      7.494045
  S      -5.696000      8.123695      1.757099
  C      -6.727086      8.682613      3.160695
  H      -6.817203      9.778646      3.177808
  H      -6.302697      8.351371      4.122069
  H      -7.739260      8.258907      3.075774
  Cu     -3.178039      6.554406      4.988551
  Cu     -3.706826      8.852145      2.548356
  Cu     -2.174859      8.688594      4.657793
  S      -1.701273      9.760924      2.783128
  C      -0.889205      8.268065      2.074490
  H      -0.890450      8.320859      0.975948
  H       0.153791      8.204010      2.417469
  H      -1.421260      7.355714      2.385572
19
Coordinates from ORCA-job 3_Cu4C3H9S3 E -7868.482773518084
  Cu     -4.469175      6.708990      3.108491
  S      -2.156453      7.776825      6.682622
  C      -3.796056      8.362220      7.247498
  H      -4.071042      7.854094      8.184136
  H      -4.573783      8.138635      6.499803
  H      -3.787925      9.445847      7.434488
  S      -5.684641      8.176819      1.788149
  C      -6.700258      8.674497      3.227146
  H      -6.791651      9.768644      3.289164
  H      -6.260875      8.303063      4.166922
  H      -7.711488      8.250082      3.135293
  Cu     -3.135111      6.570431      4.959107
  Cu     -3.690567      8.893402      2.556167
  Cu     -2.172121      8.730540      4.645825
  S      -1.664552      9.764659      2.758120
  C      -0.887423      8.240328      2.070472
  H      -0.891005      8.278859      0.971377
  H       0.154185      8.160152      2.414171
  H      -1.442616      7.347818      2.398834
19
Coordinates from ORCA-job 3_Cu4C3H9S3 E -7868.483052584586
  Cu     -4.434188      6.731005      3.087533
  S      -2.181150      7.828376      6.672592
  C      -3.848187      8.362465      7.209944
  H      -4.117011      7.849720      8.145514
  H      -4.604258      8.106343      6.450750
  H      -3.877014      9.446779      7.388754
  S      -5.677608      8.226737      1.820876
  C      -6.681450      8.666042      3.287873
  H      -6.776792      9.756587      3.389031
  H      -6.227781      8.261396      4.206775
  H      -7.690023      8.237834      3.188210
  Cu     -3.103149      6.592139      4.935225
  Cu     -3.675095      8.933562      2.561932
  Cu     -2.167638      8.771204      4.635308
  S      -1.623294      9.762095      2.729124
  C      -0.876931      8.213351      2.060061
  H      -0.883167      8.241154      0.960926
  H       0.163050      8.120823      2.404717
  H      -1.450870      7.338292      2.402643
19
Coordinates from ORCA-job 3_Cu4C3H9S3 E -7868.483142643096
  Cu     -4.409224      6.756257      3.074448
  S      -2.192789      7.869775      6.665459
  C      -3.877252      8.359061      7.190421
  H      -4.138675      7.837068      8.122583
  H      -4.618841      8.084500      6.423707
  H      -3.935485      9.441691      7.370572
  S      -5.670674      8.267257      1.839286
  C      -6.672810      8.657920      3.320915
  H      -6.778090      9.744219      3.450802
  H      -6.209992      8.233584      4.226053
  H      -7.676806      8.221959      3.212640
  Cu     -3.081055      6.617534      4.918772
  Cu     -3.665331      8.973092      2.567509
  Cu     -2.165376      8.811763      4.629633
  S      -1.590058      9.758530      2.705017
  C      -0.872727      8.190069      2.054798
  H      -0.880910      8.205938      0.955727
  H       0.165728      8.085173      2.399605
  H      -1.462188      7.330516      2.409841
19
Coordinates from ORCA-job 3_Cu4C3H9S3 E -7868.483104017504
  Cu     -4.408023      6.765348      3.076096
  S      -2.187531      7.876801      6.664780
  C      -3.872380      8.355809      7.196218
  H      -4.130333      7.827187      8.125588
  H      -4.615008      8.083966      6.429532
  H      -3.935494      9.436984      7.383737
  S      -5.668467      8.274126      1.835539
  C      -6.677316      8.656070      3.314251
  H      -6.790175      9.741397      3.446449
  H      -6.215127      8.233740      4.220662
  H      -7.678504      8.214561      3.202645
  Cu     -3.080735      6.627304      4.918142
  Cu     -3.665895      8.984811      2.567643
  Cu     -2.165007      8.824747      4.631111
  S      -1.584787      9.756628      2.700138
  C      -0.874002      8.185029      2.055586
  H      -0.882034      8.196542      0.956441
  H       0.164218      8.076737      2.400120
  H      -1.465956      7.328120      2.413111
19
Coordinates from ORCA-job 3_Cu4C3H9S3 E -7868.483086086087
  Cu     -4.406377      6.771606      3.076764
  S      -2.183135      7.880112      6.665159
  C      -3.868399      8.353478      7.198300
  H      -4.127403      7.819399      8.124409
  H      -4.611410      8.086364      6.430084
  H      -3.934374      9.433438      7.392965
  S      -5.668479      8.277243      1.831674
  C      -6.678675      8.654860      3.309813
  H      -6.798178      9.739654      3.442334
  H      -6.214972      8.236632      4.217557
  H      -7.678040      8.208496      3.199862
  Cu     -3.079439      6.634336      4.916483
  Cu     -3.666339      8.990852      2.565851
  Cu     -2.163740      8.832240      4.631988
  S      -1.583099      9.756234      2.697728
  C      -0.876972      8.182766      2.058196
  H      -0.884356      8.189714      0.958852
  H       0.161170      8.071228      2.402429
  H      -1.470338      7.327254      2.417342
19
Coordinates from ORCA-job 3_Cu4C3H9S3 E -7868.483185067107
  Cu     -4.408575      6.771252      3.078439
  S      -2.180588      7.880296      6.665492
  C      -3.865294      8.353037      7.199935
  H      -4.124747      7.817709      8.125341
  H      -4.609366      8.087694      6.431969
  H      -3.931722      9.432733      7.396759
  S      -5.669051      8.277562      1.829013
  C      -6.679605      8.654982      3.306560
  H      -6.800803      9.739748      3.439050
  H      -6.216196      8.238137      4.215233
  H      -7.678793      8.207722      3.197402
  Cu     -3.081604      6.634391      4.917146
  Cu     -3.667306      8.990651      2.563205
  Cu     -2.162197      8.832612      4.633048
  S      -1.585156      9.755729      2.698608
  C      -0.877705      8.183482      2.059365
  H      -0.884279      8.189627      0.959864
  H       0.160561      8.071749      2.403629
  H      -1.470131      7.326793      2.417731
19
Coordinates from ORCA-job 3_Cu4C3H9S3 E -7868.483136077420
  Cu     -4.405665      6.772318      3.076100
  S      -2.182687      7.883695      6.665587
  C      -3.869876      8.353529      7.194077
  H      -4.131408      7.818939      8.119426
  H      -4.611356      8.085577      6.424390
  H      -3.939597      9.433370      7.389398
  S      -5.670444      8.281427      1.830925
  C      -6.675681      8.654206      3.313016
  H      -6.796461      9.738565      3.449831
  H      -6.209572      8.234315      4.219017
  H      -7.675480      8.207545      3.206158
  Cu     -3.079258      6.635580      4.914045
  Cu     -3.666226      8.991516      2.560944
  Cu     -2.160141      8.833415      4.632288
  S      -1.584413      9.756000      2.698025
  C      -0.878280      8.182585      2.060249
  H      -0.884356      8.187268      0.960646
  H       0.159883      8.069518      2.404663
  H      -1.471539      7.326536      2.419005
19
Coordinates from ORCA-job 3_Cu4C3H9S3 E -7868.483170605263
  Cu     -4.404896      6.772186      3.074864
  S      -2.184392      7.885665      6.665600
  C      -3.872925      8.354223      7.191156
  H      -4.134277      7.821517      8.117620
  H      -4.612969      8.082701      6.421374
  H      -3.944424      9.434446      7.383406
  S      -5.671134      8.284052      1.832343
  C      -6.673788      8.653804      3.317027
  H      -6.792449      9.737901      3.457352
  H      -6.207004      8.229963      4.220823
  H      -7.674349      8.208966      3.209883
  Cu     -3.079065      6.635368      4.912879
  Cu     -3.665823      8.991799      2.559691
  Cu     -2.158928      8.833142      4.632168
  S      -1.584193      9.755735      2.698149
  C      -0.877633      8.181999      2.059935
  H      -0.883519      8.187207      0.960358
  H       0.160416      8.069092      2.404657
  H      -1.471204      7.326139      2.418504
19
Coordinates from ORCA-job 3_Cu4C3H9S3 E -7868.483152327048
  Cu     -4.403822      6.773022      3.073535
  S      -2.185433      7.887091      6.665737
  C      -3.875000      8.354563      7.189435
  H      -4.135975      7.822969      8.116584
  H      -4.613884      8.080628      6.419458
  H      -3.947673      9.434995      7.379640
  S      -5.671511      8.286084      1.833097
  C      -6.672634      8.653311      3.319632
  H      -6.789927      9.737160      3.462432
  H      -6.205174      8.226671      4.221719
  H      -7.673554      8.209523      3.211992
  Cu     -3.078435      6.636135      4.911829
  Cu     -3.665576      8.992844      2.559222
  Cu     -2.158328      8.833695      4.632197
  S      -1.583506      9.755528      2.697931
  C      -0.877441      8.181038      2.059754
  H      -0.883406      8.186603      0.960244
  H       0.160458      8.068151      2.404726
  H      -1.471736      7.325893      2.418627
