25
Coordinates from ORCA-job 4_Cu5C4H12S4
  Cu  -5.90963794560657      7.73876036294212      3.83179857542242
  Cu  -3.55996579500793      8.37981585608243      3.45299179364541
  S   -7.16424607083057      5.82414512076341      3.73927701228378
  C   -8.89161244282749      6.32542034428515      4.06929470532320
  H   -8.92384249434356      7.30570423708267      4.54347815998562
  H   -9.37969680274641      5.59364051254307      4.71282239215494
  H   -9.42939886157696      6.37435052262888      3.12120796311067
  Cu  -6.13782050145869      5.78678463656066      5.61130827986891
  S   -4.72392257744096      6.06599625139951      7.23380679846627
  H   -6.31479991943531      6.96976845891411      8.83085630423190
  H   -5.89056393892224      8.18611684939890      7.60636832261054
  C   -5.50205620942976      7.38719405583734      8.23649255508446
  H   -4.74925139500779      7.80173438725205      8.90755993523308
  Cu  -4.09611434148066      7.21635782252150      5.41724541488290
  Cu  -5.25382160760290      9.70291881652548      2.17621671302809
  S   -7.11809002886052      9.58318819527445      3.21043742853739
  C   -8.37268344931326      8.99693450682241      2.01616588858023
  H   -9.33040760937398      8.90538945604499      2.53081214811247
  H   -8.47903393757802      9.71177257668466      1.20035211684572
  H   -8.09499876376480      8.02364377922163      1.61312538913280
  S   -3.17936651415957      9.52311301076670      1.56477225030840
  C   -3.23062263901882      8.17825885735268      0.32172076325897
  H   -2.21517040493725      7.81410662153513      0.16316457245505
  H   -3.85311192943069      7.35053115566961      0.65883548126067
  H   -3.62060881984504      8.56139460589015     -0.62124396382402
