12
Coordinates from ORCA-job 1_d-cys
  S   2.58777549859309     -0.42078159036683      0.57169660264489
  O   -1.96966502612893     -1.37145480098399     -0.77837957131405
  O   -1.82035275457946      0.86468877530651     -1.08310189724565
  N   -0.16745484771441      1.10825290335696      1.09557687400313
  C   -0.24211344794506     -0.18788961589172      0.40485447705945
  C   1.03084779394925     -0.51308725918255     -0.41111588539283
  C   -1.45899542696116     -0.23223748381512     -0.55543516348892
  H   -0.36906892825651     -0.98954868176912      1.15325866351312
  H   0.91808000076565     -1.52023902235413     -0.84361250110706
  H   1.08688774038781      0.20097707594485     -1.25197996625844
  H   -0.42875396447823      1.80871042817533      0.39020185314080
  H   0.83281236236796      1.25261027157982      1.30803951444557
