12
Coordinates from ORCA-job 1_d-cys E -720.624352074228
  S       2.600964     -0.267484      0.605898
  O      -2.155864     -1.319620     -0.647467
  O      -1.706812      0.853482     -1.203616
  N      -0.176548      1.081743      1.128297
  C      -0.253253     -0.242739      0.409493
  C       1.038265     -0.473962     -0.418351
  C      -1.491642     -0.238202     -0.582338
  H      -0.380187     -1.029705      1.161734
  H       0.986929     -1.478122     -0.858417
  H       1.048762      0.215692     -1.272849
  H      -0.348141      1.749522      0.369241
  H       0.837526      1.149396      1.308378
12
Coordinates from ORCA-job 1_d-cys E -720.625312522674
  S       2.596124     -0.328882      0.550041
  O      -2.061834     -1.343915     -0.700320
  O      -1.668656      0.825245     -1.223556
  N      -0.185927      1.094508      1.138298
  C      -0.252018     -0.216684      0.420803
  C       1.016581     -0.484559     -0.420454
  C      -1.491613     -0.225073     -0.534869
  H      -0.371966     -1.012712      1.169658
  H       0.938734     -1.493982     -0.858651
  H       1.030008      0.217176     -1.269853
  H      -0.378004      1.777934      0.391709
  H       0.828571      1.190945      1.337196
12
Coordinates from ORCA-job 1_d-cys E -720.626685176816
  S       2.593136     -0.388309      0.522416
  O      -2.050672     -1.324056     -0.678451
  O      -1.714573      0.839042     -1.158916
  N      -0.213374      1.090129      1.111860
  C      -0.233028     -0.196203      0.395335
  C       1.031172     -0.503655     -0.419386
  C      -1.435044     -0.230111     -0.552791
  H      -0.359132     -1.009848      1.133300
  H       0.945236     -1.525034     -0.846992
  H       1.065717      0.210111     -1.265333
  H      -0.416218      1.797633      0.381934
  H       0.786779      1.240300      1.377028
12
Coordinates from ORCA-job 1_d-cys E -720.627762988229
  S       2.592714     -0.371036      0.556356
  O      -2.046672     -1.348427     -0.713956
  O      -1.757732      0.851093     -1.144697
  N      -0.188298      1.095131      1.109456
  C      -0.241768     -0.201094      0.400822
  C       1.031601     -0.498415     -0.415636
  C      -1.462818     -0.234085     -0.557363
  H      -0.364405     -1.005003      1.146492
  H       0.945215     -1.511379     -0.844440
  H       1.067513      0.209646     -1.262304
  H      -0.387603      1.792762      0.378641
  H       0.812251      1.220807      1.346632
12
Coordinates from ORCA-job 1_d-cys E -720.627915073648
  S       2.589032     -0.392502      0.564102
  O      -2.006696     -1.364174     -0.751048
  O      -1.792916      0.858644     -1.110266
  N      -0.180091      1.102898      1.101897
  C      -0.243334     -0.194289      0.402645
  C       1.029840     -0.503815     -0.413369
  C      -1.464522     -0.234566     -0.553717
  H      -0.365900     -0.995956      1.150935
  H       0.932566     -1.514336     -0.842532
  H       1.074862      0.206031     -1.258067
  H      -0.392492      1.800993      0.376683
  H       0.819650      1.231073      1.332741
12
Coordinates from ORCA-job 1_d-cys E -720.627990263406
  S       2.585955     -0.420427      0.571918
  O      -1.970424     -1.375754     -0.777531
  O      -1.824360      0.861085     -1.084373
  N      -0.170946      1.109726      1.095848
  C      -0.243699     -0.186525      0.403887
  C       1.029386     -0.509866     -0.411865
  C      -1.462028     -0.235221     -0.553980
  H      -0.367092     -0.987547      1.153533
  H       0.918391     -1.516678     -0.844550
  H       1.085735      0.204551     -1.252443
  H      -0.409705      1.810734      0.382914
  H       0.828784      1.245921      1.316645
12
Coordinates from ORCA-job 1_d-cys E -720.627999843688
  S       2.586112     -0.423660      0.572985
  O      -1.968043     -1.375021     -0.777919
  O      -1.824867      0.861843     -1.083137
  N      -0.168942      1.109575      1.095215
  C      -0.243160     -0.186350      0.404106
  C       1.030022     -0.511414     -0.411720
  C      -1.460343     -0.234353     -0.554881
  H      -0.367705     -0.987637      1.153400
  H       0.916987     -1.517752     -0.845399
  H       1.087646      0.203931     -1.251450
  H      -0.418841      1.811251      0.386811
  H       0.831132      1.249588      1.311992
12
Coordinates from ORCA-job 1_d-cys E -720.628003293317
  S       2.587016     -0.422424      0.572503
  O      -1.969017     -1.372732     -0.777653
  O      -1.821865      0.863448     -1.083392
  N      -0.167794      1.108710      1.095304
  C      -0.242477     -0.187319      0.404535
  C       1.030617     -0.512598     -0.411432
  C      -1.459257     -0.233004     -0.555364
  H      -0.368513     -0.988833      1.153286
  H       0.917439     -1.519294     -0.844787
  H       1.087529      0.202317     -1.251524
  H      -0.426160      1.809902      0.389521
  H       0.832483      1.251826      1.309006
12
Coordinates from ORCA-job 1_d-cys E -720.628004018948
  S       2.587775     -0.420782      0.571697
  O      -1.969665     -1.371455     -0.778380
  O      -1.820353      0.864689     -1.083102
  N      -0.167455      1.108253      1.095577
  C      -0.242113     -0.187890      0.404854
  C       1.030848     -0.513087     -0.411116
  C      -1.458995     -0.232237     -0.555435
  H      -0.369069     -0.989549      1.153259
  H       0.918080     -1.520239     -0.843613
  H       1.086888      0.200977     -1.251980
  H      -0.428754      1.808710      0.390202
  H       0.832812      1.252610      1.308040
